           2
 Time =    0.0000000000000000     
Ne    0.000000    0.000000    4.233416
Ne    0.000000    0.000000    0.000000
           2
 Time =    1.0000000000000000     
Ne    0.000000    0.000000    4.233416
Ne    0.000000    0.000000    0.000000
           2
 Time =    2.0000000000000000     
Ne    0.000000    0.000000    4.233416
Ne    0.000000    0.000000    0.000000
           2
 Time =    3.0000000000000000     
Ne    0.000000    0.000000    4.233416
Ne    0.000000    0.000000    0.000000
           2
 Time =    4.0000000000000000     
Ne    0.000000    0.000000    4.233416
Ne    0.000000    0.000000    0.000000
           2
 Time =    5.0000000000000000     
Ne    0.000000    0.000000    4.233416
Ne    0.000000    0.000000    0.000000
           2
 Time =    6.0000000000000000     
Ne    0.000000    0.000000    4.233416
Ne    0.000000    0.000000    0.000000
           2
 Time =    7.0000000000000000     
Ne    0.000000    0.000000    4.233416
Ne    0.000000    0.000000    0.000000
           2
 Time =    8.0000000000000000     
Ne    0.000000    0.000000    4.233416
Ne    0.000000    0.000000    0.000000
           2
 Time =    9.0000000000000000     
Ne    0.000000    0.000000    4.233416
Ne    0.000000    0.000000    0.000000
           2
 Time =    10.000000000000000     
Ne    0.000000    0.000000    4.233416
Ne    0.000000    0.000000    0.000000
           2
 Time =    11.000000000000000     
Ne    0.000000    0.000000    4.233416
Ne    0.000000    0.000000    0.000000
           2
 Time =    12.000000000000000     
Ne    0.000000    0.000000    4.233416
Ne    0.000000    0.000000    0.000000
           2
 Time =    13.000000000000000     
Ne    0.000000    0.000000    4.233416
Ne    0.000000    0.000000    0.000000
           2
 Time =    14.000000000000000     
Ne    0.000000    0.000000    4.233416
Ne    0.000000    0.000000    0.000000
           2
 Time =    15.000000000000000     
Ne    0.000000    0.000000    4.233416
Ne    0.000000    0.000000    0.000000
           2
 Time =    16.000000000000000     
Ne    0.000000    0.000000    4.233416
Ne    0.000000    0.000000    0.000000
           2
 Time =    17.000000000000000     
Ne    0.000000    0.000000    4.233416
Ne    0.000000    0.000000    0.000000
           2
 Time =    18.000000000000000     
Ne    0.000000    0.000000    4.233416
Ne    0.000000    0.000000    0.000000
           2
 Time =    19.000000000000000     
Ne    0.000000    0.000000    4.233416
Ne    0.000000    0.000000    0.000000
           2
 Time =    20.000000000000000     
Ne    0.000000    0.000000    4.233416
Ne    0.000000    0.000000    0.000000
           2
 Time =    21.000000000000000     
Ne    0.000000    0.000000    4.233416
Ne    0.000000    0.000000    0.000000
           2
 Time =    22.000000000000000     
Ne    0.000000    0.000000    4.233416
Ne    0.000000    0.000000    0.000000
           2
 Time =    23.000000000000000     
Ne    0.000000    0.000000    4.233416
Ne    0.000000    0.000000    0.000000
           2
 Time =    24.000000000000000     
Ne    0.000000    0.000000    4.233416
Ne    0.000000    0.000000    0.000000
           2
 Time =    25.000000000000000     
Ne    0.000000    0.000000    4.233416
Ne    0.000000    0.000000    0.000000
           2
 Time =    26.000000000000000     
Ne    0.000000    0.000000    4.233416
Ne    0.000000    0.000000    0.000000
           2
 Time =    27.000000000000000     
Ne    0.000000    0.000000    4.233416
Ne    0.000000    0.000000    0.000000
           2
 Time =    28.000000000000000     
Ne    0.000000    0.000000    4.233416
Ne    0.000000    0.000000    0.000000
           2
 Time =    29.000000000000000     
Ne    0.000000    0.000000    4.233416
Ne    0.000000    0.000000    0.000000
           2
 Time =    30.000000000000000     
Ne    0.000000    0.000000    4.233416
Ne    0.000000    0.000000    0.000000
           2
 Time =    31.000000000000000     
Ne    0.000000    0.000000    4.233416
Ne    0.000000    0.000000    0.000000
           2
 Time =    32.000000000000000     
Ne    0.000000    0.000000    4.233416
Ne    0.000000    0.000000    0.000000
           2
 Time =    33.000000000000000     
Ne    0.000000    0.000000    4.233416
Ne    0.000000    0.000000    0.000000
           2
 Time =    34.000000000000000     
Ne    0.000000    0.000000    4.233416
Ne    0.000000    0.000000    0.000000
           2
 Time =    35.000000000000000     
Ne    0.000000    0.000000    4.233416
Ne    0.000000    0.000000    0.000000
           2
 Time =    36.000000000000000     
Ne    0.000000    0.000000    4.233416
Ne    0.000000    0.000000    0.000000
           2
 Time =    37.000000000000000     
Ne    0.000000    0.000000    4.233416
Ne    0.000000    0.000000    0.000000
           2
 Time =    38.000000000000000     
Ne    0.000000    0.000000    4.233416
Ne    0.000000    0.000000    0.000000
           2
 Time =    39.000000000000000     
Ne    0.000000    0.000000    4.233416
Ne    0.000000    0.000000    0.000000
           2
 Time =    40.000000000000000     
Ne    0.000000    0.000000    4.233416
Ne    0.000000    0.000000    0.000000
           2
 Time =    41.000000000000000     
Ne    0.000000    0.000000    4.233416
Ne    0.000000    0.000000    0.000000
           2
 Time =    42.000000000000000     
Ne    0.000000    0.000000    4.233416
Ne    0.000000    0.000000    0.000000
           2
 Time =    43.000000000000000     
Ne    0.000000    0.000000    4.233416
Ne    0.000000    0.000000    0.000000
           2
 Time =    44.000000000000000     
Ne    0.000000    0.000000    4.233416
Ne    0.000000    0.000000    0.000000
           2
 Time =    45.000000000000000     
Ne    0.000000    0.000000    4.233416
Ne    0.000000    0.000000    0.000000
           2
 Time =    46.000000000000000     
Ne    0.000000    0.000000    4.233416
Ne    0.000000    0.000000    0.000000
           2
 Time =    47.000000000000000     
Ne    0.000000    0.000000    4.233416
Ne    0.000000    0.000000    0.000000
           2
 Time =    48.000000000000000     
Ne    0.000000    0.000000    4.233416
Ne    0.000000    0.000000    0.000000
           2
 Time =    49.000000000000000     
Ne    0.000000    0.000000    4.233416
Ne    0.000000    0.000000    0.000000
           2
 Time =    50.000000000000000     
Ne    0.000000    0.000000    4.233416
Ne    0.000000    0.000000    0.000000
           2
 Time =    51.000000000000000     
Ne    0.000000    0.000000    4.233416
Ne    0.000000    0.000000    0.000000
           2
 Time =    52.000000000000000     
Ne    0.000000    0.000000    4.233416
Ne    0.000000    0.000000    0.000000
           2
 Time =    53.000000000000000     
Ne    0.000000    0.000000    4.233416
Ne    0.000000    0.000000    0.000000
           2
 Time =    54.000000000000000     
Ne    0.000000    0.000000    4.233416
Ne    0.000000    0.000000    0.000000
           2
 Time =    55.000000000000000     
Ne    0.000000    0.000000    4.233416
Ne    0.000000    0.000000    0.000000
           2
 Time =    56.000000000000000     
Ne    0.000000    0.000000    4.233416
Ne    0.000000    0.000000    0.000000
           2
 Time =    57.000000000000000     
Ne    0.000000    0.000000    4.233416
Ne    0.000000    0.000000    0.000000
           2
 Time =    58.000000000000000     
Ne    0.000000    0.000000    4.233416
Ne    0.000000    0.000000    0.000000
           2
 Time =    59.000000000000000     
Ne    0.000000    0.000000    4.233416
Ne    0.000000    0.000000    0.000000
           2
 Time =    60.000000000000000     
Ne    0.000000    0.000000    4.233416
Ne    0.000000    0.000000    0.000000
           2
 Time =    61.000000000000000     
Ne    0.000000    0.000000    4.233416
Ne    0.000000    0.000000    0.000000
           2
 Time =    62.000000000000000     
Ne    0.000000    0.000000    4.233416
Ne    0.000000    0.000000    0.000000
           2
 Time =    63.000000000000000     
Ne    0.000000    0.000000    4.233416
Ne    0.000000    0.000000    0.000000
           2
 Time =    64.000000000000000     
Ne    0.000000    0.000000    4.233416
Ne    0.000000    0.000000    0.000000
           2
 Time =    65.000000000000000     
Ne    0.000000    0.000000    4.233416
Ne    0.000000    0.000000    0.000000
           2
 Time =    66.000000000000000     
Ne    0.000000    0.000000    4.233416
Ne    0.000000    0.000000    0.000000
           2
 Time =    67.000000000000000     
Ne    0.000000    0.000000    4.233416
Ne    0.000000    0.000000    0.000000
           2
 Time =    68.000000000000000     
Ne    0.000000    0.000000    4.233416
Ne    0.000000    0.000000    0.000000
           2
 Time =    69.000000000000000     
Ne    0.000000    0.000000    4.233416
Ne    0.000000    0.000000    0.000000
           2
 Time =    70.000000000000000     
Ne    0.000000    0.000000    4.233416
Ne    0.000000    0.000000    0.000000
           2
 Time =    71.000000000000000     
Ne    0.000000    0.000000    4.233416
Ne    0.000000    0.000000    0.000000
           2
 Time =    72.000000000000000     
Ne    0.000000    0.000000    4.233416
Ne    0.000000    0.000000    0.000000
           2
 Time =    73.000000000000000     
Ne    0.000000    0.000000    4.233416
Ne    0.000000    0.000000    0.000000
           2
 Time =    74.000000000000000     
Ne    0.000000    0.000000    4.233416
Ne    0.000000    0.000000    0.000000
           2
 Time =    75.000000000000000     
Ne    0.000000    0.000000    4.233416
Ne    0.000000    0.000000    0.000000
           2
 Time =    76.000000000000000     
Ne    0.000000    0.000000    4.233416
Ne    0.000000    0.000000    0.000000
           2
 Time =    77.000000000000000     
Ne    0.000000    0.000000    4.233416
Ne    0.000000    0.000000    0.000000
           2
 Time =    78.000000000000000     
Ne    0.000000    0.000000    4.233416
Ne    0.000000    0.000000    0.000000
           2
 Time =    79.000000000000000     
Ne    0.000000    0.000000    4.233416
Ne    0.000000    0.000000    0.000000
           2
 Time =    80.000000000000000     
Ne    0.000000    0.000000    4.233416
Ne    0.000000    0.000000    0.000000
           2
 Time =    81.000000000000000     
Ne    0.000000    0.000000    4.233416
Ne    0.000000    0.000000    0.000000
           2
 Time =    82.000000000000000     
Ne    0.000000    0.000000    4.233416
Ne    0.000000    0.000000    0.000000
           2
 Time =    83.000000000000000     
Ne    0.000000    0.000000    4.233416
Ne    0.000000    0.000000    0.000000
           2
 Time =    84.000000000000000     
Ne    0.000000    0.000000    4.233416
Ne    0.000000    0.000000    0.000000
           2
 Time =    85.000000000000000     
Ne    0.000000    0.000000    4.233416
Ne    0.000000    0.000000    0.000000
           2
 Time =    86.000000000000000     
Ne    0.000000    0.000000    4.233416
Ne    0.000000    0.000000    0.000000
           2
 Time =    87.000000000000000     
Ne    0.000000    0.000000    4.233416
Ne    0.000000    0.000000    0.000000
           2
 Time =    88.000000000000000     
Ne    0.000000    0.000000    4.233416
Ne    0.000000    0.000000    0.000000
           2
 Time =    89.000000000000000     
Ne    0.000000    0.000000    4.233416
Ne    0.000000    0.000000    0.000000
           2
 Time =    90.000000000000000     
Ne    0.000000    0.000000    4.233416
Ne    0.000000    0.000000    0.000000
           2
 Time =    91.000000000000000     
Ne    0.000000    0.000000    4.233416
Ne    0.000000    0.000000    0.000000
           2
 Time =    92.000000000000000     
Ne    0.000000    0.000000    4.233416
Ne    0.000000    0.000000    0.000000
           2
 Time =    93.000000000000000     
Ne    0.000000    0.000000    4.233416
Ne    0.000000    0.000000    0.000000
           2
 Time =    94.000000000000000     
Ne    0.000000    0.000000    4.233416
Ne    0.000000    0.000000    0.000000
           2
 Time =    95.000000000000000     
Ne    0.000000    0.000000    4.233416
Ne    0.000000    0.000000    0.000000
           2
 Time =    96.000000000000000     
Ne    0.000000    0.000000    4.233416
Ne    0.000000    0.000000    0.000000
           2
 Time =    97.000000000000000     
Ne    0.000000    0.000000    4.233416
Ne    0.000000    0.000000    0.000000
           2
 Time =    98.000000000000000     
Ne    0.000000    0.000000    4.233416
Ne    0.000000    0.000000    0.000000
           2
 Time =    99.000000000000000     
Ne    0.000000    0.000000    4.233416
Ne    0.000000    0.000000    0.000000
           2
 Time =    100.00000000000000     
Ne    0.000000    0.000000    4.233416
Ne    0.000000    0.000000    0.000000
           2
 Time =    101.00000000000000     
Ne    0.000000    0.000000    4.233416
Ne    0.000000    0.000000    0.000000
           2
 Time =    102.00000000000000     
Ne    0.000000    0.000000    4.233416
Ne    0.000000    0.000000    0.000000
           2
 Time =    103.00000000000000     
Ne    0.000000    0.000000    4.233416
Ne    0.000000    0.000000    0.000000
           2
 Time =    104.00000000000000     
Ne    0.000000    0.000000    4.233416
Ne    0.000000    0.000000    0.000000
           2
 Time =    105.00000000000000     
Ne    0.000000    0.000000    4.233416
Ne    0.000000    0.000000    0.000000
           2
 Time =    106.00000000000000     
Ne    0.000000    0.000000    4.233416
Ne    0.000000    0.000000    0.000000
           2
 Time =    107.00000000000000     
Ne    0.000000    0.000000    4.233416
Ne    0.000000    0.000000    0.000000
           2
 Time =    108.00000000000000     
Ne    0.000000    0.000000    4.233416
Ne    0.000000    0.000000    0.000000
           2
 Time =    109.00000000000000     
Ne    0.000000    0.000000    4.233416
Ne    0.000000    0.000000    0.000000
           2
 Time =    110.00000000000000     
Ne    0.000000    0.000000    4.233416
Ne    0.000000    0.000000    0.000000
           2
 Time =    111.00000000000000     
Ne    0.000000    0.000000    4.233416
Ne    0.000000    0.000000    0.000000
           2
 Time =    112.00000000000000     
Ne    0.000000    0.000000    4.233416
Ne    0.000000    0.000000    0.000000
           2
 Time =    113.00000000000000     
Ne    0.000000    0.000000    4.233416
Ne    0.000000    0.000000    0.000000
           2
 Time =    114.00000000000000     
Ne    0.000000    0.000000    4.233416
Ne    0.000000    0.000000    0.000000
           2
 Time =    115.00000000000000     
Ne    0.000000    0.000000    4.233416
Ne    0.000000    0.000000    0.000000
           2
 Time =    116.00000000000000     
Ne    0.000000    0.000000    4.233416
Ne    0.000000    0.000000    0.000000
           2
 Time =    117.00000000000000     
Ne    0.000000    0.000000    4.233416
Ne    0.000000    0.000000    0.000000
           2
 Time =    118.00000000000000     
Ne    0.000000    0.000000    4.233416
Ne    0.000000    0.000000    0.000000
           2
 Time =    119.00000000000000     
Ne    0.000000    0.000000    4.233416
Ne    0.000000    0.000000    0.000000
           2
 Time =    120.00000000000000     
Ne    0.000000    0.000000    4.233416
Ne    0.000000    0.000000    0.000000
           2
 Time =    121.00000000000000     
Ne    0.000000    0.000000    4.233416
Ne    0.000000    0.000000    0.000000
           2
 Time =    122.00000000000000     
Ne    0.000000    0.000000    4.233416
Ne    0.000000    0.000000    0.000000
           2
 Time =    123.00000000000000     
Ne    0.000000    0.000000    4.233416
Ne    0.000000    0.000000    0.000000
           2
 Time =    124.00000000000000     
Ne    0.000000    0.000000    4.233416
Ne    0.000000    0.000000    0.000000
           2
 Time =    125.00000000000000     
Ne    0.000000    0.000000    4.233416
Ne    0.000000    0.000000    0.000000
           2
 Time =    126.00000000000000     
Ne    0.000000    0.000000    4.233416
Ne    0.000000    0.000000    0.000000
           2
 Time =    127.00000000000000     
Ne    0.000000    0.000000    4.233416
Ne    0.000000    0.000000    0.000000
           2
 Time =    128.00000000000000     
Ne    0.000000    0.000000    4.233416
Ne    0.000000    0.000000    0.000000
           2
 Time =    129.00000000000000     
Ne    0.000000    0.000000    4.233416
Ne    0.000000    0.000000    0.000000
           2
 Time =    130.00000000000000     
Ne    0.000000    0.000000    4.233416
Ne    0.000000    0.000000    0.000000
           2
 Time =    131.00000000000000     
Ne    0.000000    0.000000    4.233416
Ne    0.000000    0.000000    0.000000
           2
 Time =    132.00000000000000     
Ne    0.000000    0.000000    4.233416
Ne    0.000000    0.000000    0.000000
           2
 Time =    133.00000000000000     
Ne    0.000000    0.000000    4.233416
Ne    0.000000    0.000000    0.000000
           2
 Time =    134.00000000000000     
Ne    0.000000    0.000000    4.233416
Ne    0.000000    0.000000    0.000000
           2
 Time =    135.00000000000000     
Ne    0.000000    0.000000    4.233416
Ne    0.000000    0.000000    0.000000
           2
 Time =    136.00000000000000     
Ne    0.000000    0.000000    4.233416
Ne    0.000000    0.000000    0.000000
           2
 Time =    137.00000000000000     
Ne    0.000000    0.000000    4.233416
Ne    0.000000    0.000000    0.000000
           2
 Time =    138.00000000000000     
Ne    0.000000    0.000000    4.233416
Ne    0.000000    0.000000    0.000000
           2
 Time =    139.00000000000000     
Ne    0.000000    0.000000    4.233416
Ne    0.000000    0.000000    0.000000
           2
 Time =    140.00000000000000     
Ne    0.000000    0.000000    4.233416
Ne    0.000000    0.000000    0.000000
           2
 Time =    141.00000000000000     
Ne    0.000000    0.000000    4.233416
Ne    0.000000    0.000000    0.000000
           2
 Time =    142.00000000000000     
Ne    0.000000    0.000000    4.233416
Ne    0.000000    0.000000    0.000000
           2
 Time =    143.00000000000000     
Ne    0.000000    0.000000    4.233416
Ne    0.000000    0.000000    0.000000
           2
 Time =    144.00000000000000     
Ne    0.000000    0.000000    4.233416
Ne    0.000000    0.000000    0.000000
           2
 Time =    145.00000000000000     
Ne    0.000000    0.000000    4.233416
Ne    0.000000    0.000000    0.000000
           2
 Time =    146.00000000000000     
Ne    0.000000    0.000000    4.233416
Ne    0.000000    0.000000    0.000000
           2
 Time =    147.00000000000000     
Ne    0.000000    0.000000    4.233416
Ne    0.000000    0.000000    0.000000
           2
 Time =    148.00000000000000     
Ne    0.000000    0.000000    4.233416
Ne    0.000000    0.000000    0.000000
           2
 Time =    149.00000000000000     
Ne    0.000000    0.000000    4.233416
Ne    0.000000    0.000000    0.000000
           2
 Time =    150.00000000000000     
Ne    0.000000    0.000000    4.233416
Ne    0.000000    0.000000    0.000000
           2
 Time =    151.00000000000000     
Ne    0.000000    0.000000    4.233416
Ne    0.000000    0.000000    0.000000
           2
 Time =    152.00000000000000     
Ne    0.000000    0.000000    4.233416
Ne    0.000000    0.000000    0.000000
           2
 Time =    153.00000000000000     
Ne    0.000000    0.000000    4.233416
Ne    0.000000    0.000000    0.000000
           2
 Time =    154.00000000000000     
Ne    0.000000    0.000000    4.233416
Ne    0.000000    0.000000    0.000000
           2
 Time =    155.00000000000000     
Ne    0.000000    0.000000    4.233416
Ne    0.000000    0.000000    0.000000
           2
 Time =    156.00000000000000     
Ne    0.000000    0.000000    4.233416
Ne    0.000000    0.000000    0.000000
           2
 Time =    157.00000000000000     
Ne    0.000000    0.000000    4.233416
Ne    0.000000    0.000000    0.000000
           2
 Time =    158.00000000000000     
Ne    0.000000    0.000000    4.233416
Ne    0.000000    0.000000    0.000000
           2
 Time =    159.00000000000000     
Ne    0.000000    0.000000    4.233416
Ne    0.000000    0.000000    0.000000
           2
 Time =    160.00000000000000     
Ne    0.000000    0.000000    4.233416
Ne    0.000000    0.000000    0.000000
           2
 Time =    161.00000000000000     
Ne    0.000000    0.000000    4.233416
Ne    0.000000    0.000000    0.000000
           2
 Time =    162.00000000000000     
Ne    0.000000    0.000000    4.233416
Ne    0.000000    0.000000    0.000000
           2
 Time =    163.00000000000000     
Ne    0.000000    0.000000    4.233416
Ne    0.000000    0.000000    0.000000
           2
 Time =    164.00000000000000     
Ne    0.000000    0.000000    4.233416
Ne    0.000000    0.000000    0.000000
           2
 Time =    165.00000000000000     
Ne    0.000000    0.000000    4.233416
Ne    0.000000    0.000000    0.000000
           2
 Time =    166.00000000000000     
Ne    0.000000    0.000000    4.233416
Ne    0.000000    0.000000    0.000000
           2
 Time =    167.00000000000000     
Ne    0.000000    0.000000    4.233416
Ne    0.000000    0.000000    0.000000
           2
 Time =    168.00000000000000     
Ne    0.000000    0.000000    4.233416
Ne    0.000000    0.000000    0.000000
           2
 Time =    169.00000000000000     
Ne    0.000000    0.000000    4.233416
Ne    0.000000    0.000000    0.000000
           2
 Time =    170.00000000000000     
Ne    0.000000    0.000000    4.233416
Ne    0.000000    0.000000    0.000000
           2
 Time =    171.00000000000000     
Ne    0.000000    0.000000    4.233416
Ne    0.000000    0.000000    0.000000
           2
 Time =    172.00000000000000     
Ne    0.000000    0.000000    4.233416
Ne    0.000000    0.000000    0.000000
           2
 Time =    173.00000000000000     
Ne    0.000000    0.000000    4.233416
Ne    0.000000    0.000000    0.000000
           2
 Time =    174.00000000000000     
Ne    0.000000    0.000000    4.233416
Ne    0.000000    0.000000    0.000000
           2
 Time =    175.00000000000000     
Ne    0.000000    0.000000    4.233416
Ne    0.000000    0.000000    0.000000
           2
 Time =    176.00000000000000     
Ne    0.000000    0.000000    4.233416
Ne    0.000000    0.000000    0.000000
           2
 Time =    177.00000000000000     
Ne    0.000000    0.000000    4.233416
Ne    0.000000    0.000000    0.000000
           2
 Time =    178.00000000000000     
Ne    0.000000    0.000000    4.233416
Ne    0.000000    0.000000    0.000000
           2
 Time =    179.00000000000000     
Ne    0.000000    0.000000    4.233416
Ne    0.000000    0.000000    0.000000
           2
 Time =    180.00000000000000     
Ne    0.000000    0.000000    4.233416
Ne    0.000000    0.000000    0.000000
           2
 Time =    181.00000000000000     
Ne    0.000000    0.000000    4.233416
Ne    0.000000    0.000000    0.000000
           2
 Time =    182.00000000000000     
Ne    0.000000    0.000000    4.233416
Ne    0.000000    0.000000    0.000000
           2
 Time =    183.00000000000000     
Ne    0.000000    0.000000    4.233416
Ne    0.000000    0.000000    0.000000
           2
 Time =    184.00000000000000     
Ne    0.000000    0.000000    4.233416
Ne    0.000000    0.000000    0.000000
           2
 Time =    185.00000000000000     
Ne    0.000000    0.000000    4.233416
Ne    0.000000    0.000000    0.000000
           2
 Time =    186.00000000000000     
Ne    0.000000    0.000000    4.233416
Ne    0.000000    0.000000    0.000000
           2
 Time =    187.00000000000000     
Ne    0.000000    0.000000    4.233416
Ne    0.000000    0.000000    0.000000
           2
 Time =    188.00000000000000     
Ne    0.000000    0.000000    4.233416
Ne    0.000000    0.000000    0.000000
           2
 Time =    189.00000000000000     
Ne    0.000000    0.000000    4.233416
Ne    0.000000    0.000000    0.000000
           2
 Time =    190.00000000000000     
Ne    0.000000    0.000000    4.233416
Ne    0.000000    0.000000    0.000000
           2
 Time =    191.00000000000000     
Ne    0.000000    0.000000    4.233416
Ne    0.000000    0.000000    0.000000
           2
 Time =    192.00000000000000     
Ne    0.000000    0.000000    4.233416
Ne    0.000000    0.000000    0.000000
           2
 Time =    193.00000000000000     
Ne    0.000000    0.000000    4.233416
Ne    0.000000    0.000000    0.000000
           2
 Time =    194.00000000000000     
Ne    0.000000    0.000000    4.233416
Ne    0.000000    0.000000    0.000000
           2
 Time =    195.00000000000000     
Ne    0.000000    0.000000    4.233416
Ne    0.000000    0.000000    0.000000
           2
 Time =    196.00000000000000     
Ne    0.000000    0.000000    4.233416
Ne    0.000000    0.000000    0.000000
           2
 Time =    197.00000000000000     
Ne    0.000000    0.000000    4.233416
Ne    0.000000    0.000000    0.000000
           2
 Time =    198.00000000000000     
Ne    0.000000    0.000000    4.233416
Ne    0.000000    0.000000    0.000000
           2
 Time =    199.00000000000000     
Ne    0.000000    0.000000    4.233416
Ne    0.000000    0.000000    0.000000
           2
 Time =    200.00000000000000     
Ne    0.000000    0.000000    4.233416
Ne    0.000000    0.000000    0.000000
           2
 Time =    201.00000000000000     
Ne    0.000000    0.000000    4.233416
Ne    0.000000    0.000000    0.000000
           2
 Time =    202.00000000000000     
Ne    0.000000    0.000000    4.233416
Ne    0.000000    0.000000    0.000000
           2
 Time =    203.00000000000000     
Ne    0.000000    0.000000    4.233416
Ne    0.000000    0.000000    0.000000
           2
 Time =    204.00000000000000     
Ne    0.000000    0.000000    4.233416
Ne    0.000000    0.000000    0.000000
           2
 Time =    205.00000000000000     
Ne    0.000000    0.000000    4.233416
Ne    0.000000    0.000000    0.000000
           2
 Time =    206.00000000000000     
Ne    0.000000    0.000000    4.233416
Ne    0.000000    0.000000    0.000000
           2
 Time =    207.00000000000000     
Ne    0.000000    0.000000    4.233416
Ne    0.000000    0.000000    0.000000
           2
 Time =    208.00000000000000     
Ne    0.000000    0.000000    4.233416
Ne    0.000000    0.000000    0.000000
           2
 Time =    209.00000000000000     
Ne    0.000000    0.000000    4.233416
Ne    0.000000    0.000000    0.000000
           2
 Time =    210.00000000000000     
Ne    0.000000    0.000000    4.233416
Ne    0.000000    0.000000    0.000000
           2
 Time =    211.00000000000000     
Ne    0.000000    0.000000    4.233416
Ne    0.000000    0.000000    0.000000
           2
 Time =    212.00000000000000     
Ne    0.000000    0.000000    4.233416
Ne    0.000000    0.000000    0.000000
           2
 Time =    213.00000000000000     
Ne    0.000000    0.000000    4.233416
Ne    0.000000    0.000000    0.000000
           2
 Time =    214.00000000000000     
Ne    0.000000    0.000000    4.233416
Ne    0.000000    0.000000    0.000000
           2
 Time =    215.00000000000000     
Ne    0.000000    0.000000    4.233416
Ne    0.000000    0.000000    0.000000
           2
 Time =    216.00000000000000     
Ne    0.000000    0.000000    4.233416
Ne    0.000000    0.000000    0.000000
           2
 Time =    217.00000000000000     
Ne    0.000000    0.000000    4.233416
Ne    0.000000    0.000000    0.000000
           2
 Time =    218.00000000000000     
Ne    0.000000    0.000000    4.233416
Ne    0.000000    0.000000    0.000000
           2
 Time =    219.00000000000000     
Ne    0.000000    0.000000    4.233416
Ne    0.000000    0.000000    0.000000
           2
 Time =    220.00000000000000     
Ne    0.000000    0.000000    4.233416
Ne    0.000000    0.000000    0.000000
           2
 Time =    221.00000000000000     
Ne    0.000000    0.000000    4.233416
Ne    0.000000    0.000000    0.000000
           2
 Time =    222.00000000000000     
Ne    0.000000    0.000000    4.233416
Ne    0.000000    0.000000    0.000000
           2
 Time =    223.00000000000000     
Ne    0.000000    0.000000    4.233416
Ne    0.000000    0.000000    0.000000
           2
 Time =    224.00000000000000     
Ne    0.000000    0.000000    4.233416
Ne    0.000000    0.000000    0.000000
           2
 Time =    225.00000000000000     
Ne    0.000000    0.000000    4.233416
Ne    0.000000    0.000000    0.000000
           2
 Time =    226.00000000000000     
Ne    0.000000    0.000000    4.233416
Ne    0.000000    0.000000    0.000000
           2
 Time =    227.00000000000000     
Ne    0.000000    0.000000    4.233416
Ne    0.000000    0.000000    0.000000
           2
 Time =    228.00000000000000     
Ne    0.000000    0.000000    4.233416
Ne    0.000000    0.000000    0.000000
           2
 Time =    229.00000000000000     
Ne    0.000000    0.000000    4.233416
Ne    0.000000    0.000000    0.000000
           2
 Time =    230.00000000000000     
Ne    0.000000    0.000000    4.233416
Ne    0.000000    0.000000    0.000000
           2
 Time =    231.00000000000000     
Ne    0.000000    0.000000    4.233416
Ne    0.000000    0.000000    0.000000
           2
 Time =    232.00000000000000     
Ne    0.000000    0.000000    4.233416
Ne    0.000000    0.000000    0.000000
           2
 Time =    233.00000000000000     
Ne    0.000000    0.000000    4.233416
Ne    0.000000    0.000000    0.000000
           2
 Time =    234.00000000000000     
Ne    0.000000    0.000000    4.233416
Ne    0.000000    0.000000    0.000000
           2
 Time =    235.00000000000000     
Ne    0.000000    0.000000    4.233416
Ne    0.000000    0.000000    0.000000
           2
 Time =    236.00000000000000     
Ne    0.000000    0.000000    4.233416
Ne    0.000000    0.000000    0.000000
           2
 Time =    237.00000000000000     
Ne    0.000000    0.000000    4.233416
Ne    0.000000    0.000000    0.000000
           2
 Time =    238.00000000000000     
Ne    0.000000    0.000000    4.233416
Ne    0.000000    0.000000    0.000000
           2
 Time =    239.00000000000000     
Ne    0.000000    0.000000    4.233416
Ne    0.000000    0.000000    0.000000
           2
 Time =    240.00000000000000     
Ne    0.000000    0.000000    4.233416
Ne    0.000000    0.000000    0.000000
           2
 Time =    241.00000000000000     
Ne    0.000000    0.000000    4.233416
Ne    0.000000    0.000000    0.000000
           2
 Time =    242.00000000000000     
Ne    0.000000    0.000000    4.233416
Ne    0.000000    0.000000    0.000000
           2
 Time =    243.00000000000000     
Ne    0.000000    0.000000    4.233416
Ne    0.000000    0.000000    0.000000
           2
 Time =    244.00000000000000     
Ne    0.000000    0.000000    4.233416
Ne    0.000000    0.000000    0.000000
           2
 Time =    245.00000000000000     
Ne    0.000000    0.000000    4.233416
Ne    0.000000    0.000000    0.000000
           2
 Time =    246.00000000000000     
Ne    0.000000    0.000000    4.233416
Ne    0.000000    0.000000    0.000000
           2
 Time =    247.00000000000000     
Ne    0.000000    0.000000    4.233416
Ne    0.000000    0.000000    0.000000
           2
 Time =    248.00000000000000     
Ne    0.000000    0.000000    4.233416
Ne    0.000000    0.000000    0.000000
           2
 Time =    249.00000000000000     
Ne    0.000000    0.000000    4.233416
Ne    0.000000    0.000000    0.000000
           2
 Time =    250.00000000000000     
Ne    0.000000    0.000000    4.233416
Ne    0.000000    0.000000    0.000000
           2
 Time =    251.00000000000000     
Ne    0.000000    0.000000    4.233416
Ne    0.000000    0.000000    0.000000
           2
 Time =    252.00000000000000     
Ne    0.000000    0.000000    4.233416
Ne    0.000000    0.000000    0.000000
           2
 Time =    253.00000000000000     
Ne    0.000000    0.000000    4.233416
Ne    0.000000    0.000000    0.000000
           2
 Time =    254.00000000000000     
Ne    0.000000    0.000000    4.233416
Ne    0.000000    0.000000    0.000000
           2
 Time =    255.00000000000000     
Ne    0.000000    0.000000    4.233416
Ne    0.000000    0.000000    0.000000
           2
 Time =    256.00000000000000     
Ne    0.000000    0.000000    4.233416
Ne    0.000000    0.000000    0.000000
           2
 Time =    257.00000000000000     
Ne    0.000000    0.000000    4.233416
Ne    0.000000    0.000000    0.000000
           2
 Time =    258.00000000000000     
Ne    0.000000    0.000000    4.233416
Ne    0.000000    0.000000    0.000000
           2
 Time =    259.00000000000000     
Ne    0.000000    0.000000    4.233416
Ne    0.000000    0.000000    0.000000
           2
 Time =    260.00000000000000     
Ne    0.000000    0.000000    4.233416
Ne    0.000000    0.000000    0.000000
           2
 Time =    261.00000000000000     
Ne    0.000000    0.000000    4.233416
Ne    0.000000    0.000000    0.000000
           2
 Time =    262.00000000000000     
Ne    0.000000    0.000000    4.233416
Ne    0.000000    0.000000    0.000000
           2
 Time =    263.00000000000000     
Ne    0.000000    0.000000    4.233416
Ne    0.000000    0.000000    0.000000
           2
 Time =    264.00000000000000     
Ne    0.000000    0.000000    4.233416
Ne    0.000000    0.000000    0.000000
           2
 Time =    265.00000000000000     
Ne    0.000000    0.000000    4.233416
Ne    0.000000    0.000000    0.000000
           2
 Time =    266.00000000000000     
Ne    0.000000    0.000000    4.233416
Ne    0.000000    0.000000    0.000000
           2
 Time =    267.00000000000000     
Ne    0.000000    0.000000    4.233416
Ne    0.000000    0.000000    0.000000
           2
 Time =    268.00000000000000     
Ne    0.000000    0.000000    4.233416
Ne    0.000000    0.000000    0.000000
           2
 Time =    269.00000000000000     
Ne    0.000000    0.000000    4.233416
Ne    0.000000    0.000000    0.000000
           2
 Time =    270.00000000000000     
Ne    0.000000    0.000000    4.233416
Ne    0.000000    0.000000    0.000000
           2
 Time =    271.00000000000000     
Ne    0.000000    0.000000    4.233416
Ne    0.000000    0.000000    0.000000
           2
 Time =    272.00000000000000     
Ne    0.000000    0.000000    4.233416
Ne    0.000000    0.000000    0.000000
           2
 Time =    273.00000000000000     
Ne    0.000000    0.000000    4.233416
Ne    0.000000    0.000000    0.000000
           2
 Time =    274.00000000000000     
Ne    0.000000    0.000000    4.233416
Ne    0.000000    0.000000    0.000000
           2
 Time =    275.00000000000000     
Ne    0.000000    0.000000    4.233416
Ne    0.000000    0.000000    0.000000
           2
 Time =    276.00000000000000     
Ne    0.000000    0.000000    4.233416
Ne    0.000000    0.000000    0.000000
           2
 Time =    277.00000000000000     
Ne    0.000000    0.000000    4.233416
Ne    0.000000    0.000000    0.000000
           2
 Time =    278.00000000000000     
Ne    0.000000    0.000000    4.233416
Ne    0.000000    0.000000    0.000000
           2
 Time =    279.00000000000000     
Ne    0.000000    0.000000    4.233416
Ne    0.000000    0.000000    0.000000
           2
 Time =    280.00000000000000     
Ne    0.000000    0.000000    4.233416
Ne    0.000000    0.000000    0.000000
           2
 Time =    281.00000000000000     
Ne    0.000000    0.000000    4.233416
Ne    0.000000    0.000000    0.000000
           2
 Time =    282.00000000000000     
Ne    0.000000    0.000000    4.233416
Ne    0.000000    0.000000    0.000000
           2
 Time =    283.00000000000000     
Ne    0.000000    0.000000    4.233416
Ne    0.000000    0.000000    0.000000
           2
 Time =    284.00000000000000     
Ne    0.000000    0.000000    4.233416
Ne    0.000000    0.000000    0.000000
           2
 Time =    285.00000000000000     
Ne    0.000000    0.000000    4.233416
Ne    0.000000    0.000000    0.000000
           2
 Time =    286.00000000000000     
Ne    0.000000    0.000000    4.233416
Ne    0.000000    0.000000    0.000000
           2
 Time =    287.00000000000000     
Ne    0.000000    0.000000    4.233416
Ne    0.000000    0.000000    0.000000
           2
 Time =    288.00000000000000     
Ne    0.000000    0.000000    4.233416
Ne    0.000000    0.000000    0.000000
           2
 Time =    289.00000000000000     
Ne    0.000000    0.000000    4.233416
Ne    0.000000    0.000000    0.000000
           2
 Time =    290.00000000000000     
Ne    0.000000    0.000000    4.233416
Ne    0.000000    0.000000    0.000000
           2
 Time =    291.00000000000000     
Ne    0.000000    0.000000    4.233416
Ne    0.000000    0.000000    0.000000
           2
 Time =    292.00000000000000     
Ne    0.000000    0.000000    4.233416
Ne    0.000000    0.000000    0.000000
           2
 Time =    293.00000000000000     
Ne    0.000000    0.000000    4.233416
Ne    0.000000    0.000000    0.000000
           2
 Time =    294.00000000000000     
Ne    0.000000    0.000000    4.233416
Ne    0.000000    0.000000    0.000000
           2
 Time =    295.00000000000000     
Ne    0.000000    0.000000    4.233416
Ne    0.000000    0.000000    0.000000
           2
 Time =    296.00000000000000     
Ne    0.000000    0.000000    4.233416
Ne    0.000000    0.000000    0.000000
           2
 Time =    297.00000000000000     
Ne    0.000000    0.000000    4.233416
Ne    0.000000    0.000000    0.000000
           2
 Time =    298.00000000000000     
Ne    0.000000    0.000000    4.233416
Ne    0.000000    0.000000    0.000000
           2
 Time =    299.00000000000000     
Ne    0.000000    0.000000    4.233416
Ne    0.000000    0.000000    0.000000
           2
 Time =    300.00000000000000     
Ne    0.000000    0.000000    4.233416
Ne    0.000000    0.000000    0.000000
           2
 Time =    301.00000000000000     
Ne    0.000000    0.000000    4.233416
Ne    0.000000    0.000000    0.000000
           2
 Time =    302.00000000000000     
Ne    0.000000    0.000000    4.233416
Ne    0.000000    0.000000    0.000000
           2
 Time =    303.00000000000000     
Ne    0.000000    0.000000    4.233416
Ne    0.000000    0.000000    0.000000
           2
 Time =    304.00000000000000     
Ne    0.000000    0.000000    4.233416
Ne    0.000000    0.000000    0.000000
           2
 Time =    305.00000000000000     
Ne    0.000000    0.000000    4.233416
Ne    0.000000    0.000000    0.000000
           2
 Time =    306.00000000000000     
Ne    0.000000    0.000000    4.233416
Ne    0.000000    0.000000    0.000000
           2
 Time =    307.00000000000000     
Ne    0.000000    0.000000    4.233416
Ne    0.000000    0.000000    0.000000
           2
 Time =    308.00000000000000     
Ne    0.000000    0.000000    4.233416
Ne    0.000000    0.000000    0.000000
           2
 Time =    309.00000000000000     
Ne    0.000000    0.000000    4.233416
Ne    0.000000    0.000000    0.000000
           2
 Time =    310.00000000000000     
Ne    0.000000    0.000000    4.233416
Ne    0.000000    0.000000    0.000000
           2
 Time =    311.00000000000000     
Ne    0.000000    0.000000    4.233416
Ne    0.000000    0.000000    0.000000
           2
 Time =    312.00000000000000     
Ne    0.000000    0.000000    4.233416
Ne    0.000000    0.000000    0.000000
           2
 Time =    313.00000000000000     
Ne    0.000000    0.000000    4.233416
Ne    0.000000    0.000000    0.000000
           2
 Time =    314.00000000000000     
Ne    0.000000    0.000000    4.233416
Ne    0.000000    0.000000    0.000000
           2
 Time =    315.00000000000000     
Ne    0.000000    0.000000    4.233416
Ne    0.000000    0.000000    0.000000
           2
 Time =    316.00000000000000     
Ne    0.000000    0.000000    4.233416
Ne    0.000000    0.000000    0.000000
           2
 Time =    317.00000000000000     
Ne    0.000000    0.000000    4.233416
Ne    0.000000    0.000000    0.000000
           2
 Time =    318.00000000000000     
Ne    0.000000    0.000000    4.233416
Ne    0.000000    0.000000    0.000000
           2
 Time =    319.00000000000000     
Ne    0.000000    0.000000    4.233416
Ne    0.000000    0.000000    0.000000
           2
 Time =    320.00000000000000     
Ne    0.000000    0.000000    4.233416
Ne    0.000000    0.000000    0.000000
           2
 Time =    321.00000000000000     
Ne    0.000000    0.000000    4.233416
Ne    0.000000    0.000000    0.000000
           2
 Time =    322.00000000000000     
Ne    0.000000    0.000000    4.233416
Ne    0.000000    0.000000    0.000000
           2
 Time =    323.00000000000000     
Ne    0.000000    0.000000    4.233416
Ne    0.000000    0.000000    0.000000
           2
 Time =    324.00000000000000     
Ne    0.000000    0.000000    4.233416
Ne    0.000000    0.000000    0.000000
           2
 Time =    325.00000000000000     
Ne    0.000000    0.000000    4.233416
Ne    0.000000    0.000000    0.000000
           2
 Time =    326.00000000000000     
Ne    0.000000    0.000000    4.233416
Ne    0.000000    0.000000    0.000000
           2
 Time =    327.00000000000000     
Ne    0.000000    0.000000    4.233416
Ne    0.000000    0.000000    0.000000
           2
 Time =    328.00000000000000     
Ne    0.000000    0.000000    4.233416
Ne    0.000000    0.000000    0.000000
           2
 Time =    329.00000000000000     
Ne    0.000000    0.000000    4.233416
Ne    0.000000    0.000000    0.000000
           2
 Time =    330.00000000000000     
Ne    0.000000    0.000000    4.233416
Ne    0.000000    0.000000    0.000000
           2
 Time =    331.00000000000000     
Ne    0.000000    0.000000    4.233416
Ne    0.000000    0.000000    0.000000
           2
 Time =    332.00000000000000     
Ne    0.000000    0.000000    4.233416
Ne    0.000000    0.000000    0.000000
           2
 Time =    333.00000000000000     
Ne    0.000000    0.000000    4.233416
Ne    0.000000    0.000000    0.000000
           2
 Time =    334.00000000000000     
Ne    0.000000    0.000000    4.233416
Ne    0.000000    0.000000    0.000000
           2
 Time =    335.00000000000000     
Ne    0.000000    0.000000    4.233416
Ne    0.000000    0.000000    0.000000
           2
 Time =    336.00000000000000     
Ne    0.000000    0.000000    4.233416
Ne    0.000000    0.000000    0.000000
           2
 Time =    337.00000000000000     
Ne    0.000000    0.000000    4.233416
Ne    0.000000    0.000000    0.000000
           2
 Time =    338.00000000000000     
Ne    0.000000    0.000000    4.233416
Ne    0.000000    0.000000    0.000000
           2
 Time =    339.00000000000000     
Ne    0.000000    0.000000    4.233416
Ne    0.000000    0.000000    0.000000
           2
 Time =    340.00000000000000     
Ne    0.000000    0.000000    4.233416
Ne    0.000000    0.000000    0.000000
           2
 Time =    341.00000000000000     
Ne    0.000000    0.000000    4.233416
Ne    0.000000    0.000000    0.000000
           2
 Time =    342.00000000000000     
Ne    0.000000    0.000000    4.233416
Ne    0.000000    0.000000    0.000000
           2
 Time =    343.00000000000000     
Ne    0.000000    0.000000    4.233416
Ne    0.000000    0.000000    0.000000
           2
 Time =    344.00000000000000     
Ne    0.000000    0.000000    4.233416
Ne    0.000000    0.000000    0.000000
           2
 Time =    345.00000000000000     
Ne    0.000000    0.000000    4.233416
Ne    0.000000    0.000000    0.000000
           2
 Time =    346.00000000000000     
Ne    0.000000    0.000000    4.233416
Ne    0.000000    0.000000    0.000000
           2
 Time =    347.00000000000000     
Ne    0.000000    0.000000    4.233416
Ne    0.000000    0.000000    0.000000
           2
 Time =    348.00000000000000     
Ne    0.000000    0.000000    4.233416
Ne    0.000000    0.000000    0.000000
           2
 Time =    349.00000000000000     
Ne    0.000000    0.000000    4.233416
Ne    0.000000    0.000000    0.000000
           2
 Time =    350.00000000000000     
Ne    0.000000    0.000000    4.233416
Ne    0.000000    0.000000    0.000000
           2
 Time =    351.00000000000000     
Ne    0.000000    0.000000    4.233416
Ne    0.000000    0.000000    0.000000
           2
 Time =    352.00000000000000     
Ne    0.000000    0.000000    4.233416
Ne    0.000000    0.000000    0.000000
           2
 Time =    353.00000000000000     
Ne    0.000000    0.000000    4.233416
Ne    0.000000    0.000000    0.000000
           2
 Time =    354.00000000000000     
Ne    0.000000    0.000000    4.233416
Ne    0.000000    0.000000    0.000000
           2
 Time =    355.00000000000000     
Ne    0.000000    0.000000    4.233416
Ne    0.000000    0.000000    0.000000
           2
 Time =    356.00000000000000     
Ne    0.000000    0.000000    4.233416
Ne    0.000000    0.000000    0.000000
           2
 Time =    357.00000000000000     
Ne    0.000000    0.000000    4.233416
Ne    0.000000    0.000000    0.000000
           2
 Time =    358.00000000000000     
Ne    0.000000    0.000000    4.233416
Ne    0.000000    0.000000    0.000000
           2
 Time =    359.00000000000000     
Ne    0.000000    0.000000    4.233416
Ne    0.000000    0.000000    0.000000
           2
 Time =    360.00000000000000     
Ne    0.000000    0.000000    4.233416
Ne    0.000000    0.000000    0.000000
           2
 Time =    361.00000000000000     
Ne    0.000000    0.000000    4.233416
Ne    0.000000    0.000000    0.000000
           2
 Time =    362.00000000000000     
Ne    0.000000    0.000000    4.233416
Ne    0.000000    0.000000    0.000000
           2
 Time =    363.00000000000000     
Ne    0.000000    0.000000    4.233416
Ne    0.000000    0.000000    0.000000
           2
 Time =    364.00000000000000     
Ne    0.000000    0.000000    4.233416
Ne    0.000000    0.000000    0.000000
           2
 Time =    365.00000000000000     
Ne    0.000000    0.000000    4.233416
Ne    0.000000    0.000000    0.000000
           2
 Time =    366.00000000000000     
Ne    0.000000    0.000000    4.233416
Ne    0.000000    0.000000    0.000000
           2
 Time =    367.00000000000000     
Ne    0.000000    0.000000    4.233416
Ne    0.000000    0.000000    0.000000
           2
 Time =    368.00000000000000     
Ne    0.000000    0.000000    4.233416
Ne    0.000000    0.000000    0.000000
           2
 Time =    369.00000000000000     
Ne    0.000000    0.000000    4.233416
Ne    0.000000    0.000000    0.000000
           2
 Time =    370.00000000000000     
Ne    0.000000    0.000000    4.233416
Ne    0.000000    0.000000    0.000000
           2
 Time =    371.00000000000000     
Ne    0.000000    0.000000    4.233416
Ne    0.000000    0.000000    0.000000
           2
 Time =    372.00000000000000     
Ne    0.000000    0.000000    4.233416
Ne    0.000000    0.000000    0.000000
           2
 Time =    373.00000000000000     
Ne    0.000000    0.000000    4.233416
Ne    0.000000    0.000000    0.000000
           2
 Time =    374.00000000000000     
Ne    0.000000    0.000000    4.233416
Ne    0.000000    0.000000    0.000000
           2
 Time =    375.00000000000000     
Ne    0.000000    0.000000    4.233416
Ne    0.000000    0.000000    0.000000
           2
 Time =    376.00000000000000     
Ne    0.000000    0.000000    4.233416
Ne    0.000000    0.000000    0.000000
           2
 Time =    377.00000000000000     
Ne    0.000000    0.000000    4.233416
Ne    0.000000    0.000000    0.000000
           2
 Time =    378.00000000000000     
Ne    0.000000    0.000000    4.233416
Ne    0.000000    0.000000    0.000000
           2
 Time =    379.00000000000000     
Ne    0.000000    0.000000    4.233416
Ne    0.000000    0.000000    0.000000
           2
 Time =    380.00000000000000     
Ne    0.000000    0.000000    4.233416
Ne    0.000000    0.000000    0.000000
           2
 Time =    381.00000000000000     
Ne    0.000000    0.000000    4.233416
Ne    0.000000    0.000000    0.000000
           2
 Time =    382.00000000000000     
Ne    0.000000    0.000000    4.233416
Ne    0.000000    0.000000    0.000000
           2
 Time =    383.00000000000000     
Ne    0.000000    0.000000    4.233416
Ne    0.000000    0.000000    0.000000
           2
 Time =    384.00000000000000     
Ne    0.000000    0.000000    4.233416
Ne    0.000000    0.000000    0.000000
           2
 Time =    385.00000000000000     
Ne    0.000000    0.000000    4.233416
Ne    0.000000    0.000000    0.000000
           2
 Time =    386.00000000000000     
Ne    0.000000    0.000000    4.233416
Ne    0.000000    0.000000    0.000000
           2
 Time =    387.00000000000000     
Ne    0.000000    0.000000    4.233416
Ne    0.000000    0.000000    0.000000
           2
 Time =    388.00000000000000     
Ne    0.000000    0.000000    4.233416
Ne    0.000000    0.000000    0.000000
           2
 Time =    389.00000000000000     
Ne    0.000000    0.000000    4.233416
Ne    0.000000    0.000000    0.000000
           2
 Time =    390.00000000000000     
Ne    0.000000    0.000000    4.233416
Ne    0.000000    0.000000    0.000000
           2
 Time =    391.00000000000000     
Ne    0.000000    0.000000    4.233416
Ne    0.000000    0.000000    0.000000
           2
 Time =    392.00000000000000     
Ne    0.000000    0.000000    4.233416
Ne    0.000000    0.000000    0.000000
           2
 Time =    393.00000000000000     
Ne    0.000000    0.000000    4.233416
Ne    0.000000    0.000000    0.000000
           2
 Time =    394.00000000000000     
Ne    0.000000    0.000000    4.233416
Ne    0.000000    0.000000    0.000000
           2
 Time =    395.00000000000000     
Ne    0.000000    0.000000    4.233416
Ne    0.000000    0.000000    0.000000
           2
 Time =    396.00000000000000     
Ne    0.000000    0.000000    4.233416
Ne    0.000000    0.000000    0.000000
           2
 Time =    397.00000000000000     
Ne    0.000000    0.000000    4.233416
Ne    0.000000    0.000000    0.000000
           2
 Time =    398.00000000000000     
Ne    0.000000    0.000000    4.233416
Ne    0.000000    0.000000    0.000000
           2
 Time =    399.00000000000000     
Ne    0.000000    0.000000    4.233416
Ne    0.000000    0.000000    0.000000
           2
 Time =    400.00000000000000     
Ne    0.000000    0.000000    4.233416
Ne    0.000000    0.000000    0.000000
           2
 Time =    401.00000000000000     
Ne    0.000000    0.000000    4.233416
Ne    0.000000    0.000000    0.000000
           2
 Time =    402.00000000000000     
Ne    0.000000    0.000000    4.233416
Ne    0.000000    0.000000    0.000000
           2
 Time =    403.00000000000000     
Ne    0.000000    0.000000    4.233416
Ne    0.000000    0.000000    0.000000
           2
 Time =    404.00000000000000     
Ne    0.000000    0.000000    4.233416
Ne    0.000000    0.000000    0.000000
           2
 Time =    405.00000000000000     
Ne    0.000000    0.000000    4.233416
Ne    0.000000    0.000000    0.000000
           2
 Time =    406.00000000000000     
Ne    0.000000    0.000000    4.233416
Ne    0.000000    0.000000    0.000000
           2
 Time =    407.00000000000000     
Ne    0.000000    0.000000    4.233416
Ne    0.000000    0.000000    0.000000
           2
 Time =    408.00000000000000     
Ne    0.000000    0.000000    4.233416
Ne    0.000000    0.000000    0.000000
           2
 Time =    409.00000000000000     
Ne    0.000000    0.000000    4.233416
Ne    0.000000    0.000000    0.000000
           2
 Time =    410.00000000000000     
Ne    0.000000    0.000000    4.233416
Ne    0.000000    0.000000    0.000000
           2
 Time =    411.00000000000000     
Ne    0.000000    0.000000    4.233416
Ne    0.000000    0.000000    0.000000
           2
 Time =    412.00000000000000     
Ne    0.000000    0.000000    4.233416
Ne    0.000000    0.000000    0.000000
           2
 Time =    413.00000000000000     
Ne    0.000000    0.000000    4.233416
Ne    0.000000    0.000000    0.000000
           2
 Time =    414.00000000000000     
Ne    0.000000    0.000000    4.233416
Ne    0.000000    0.000000    0.000000
           2
 Time =    415.00000000000000     
Ne    0.000000    0.000000    4.233416
Ne    0.000000    0.000000    0.000000
           2
 Time =    416.00000000000000     
Ne    0.000000    0.000000    4.233416
Ne    0.000000    0.000000    0.000000
           2
 Time =    417.00000000000000     
Ne    0.000000    0.000000    4.233416
Ne    0.000000    0.000000    0.000000
           2
 Time =    418.00000000000000     
Ne    0.000000    0.000000    4.233416
Ne    0.000000    0.000000    0.000000
           2
 Time =    419.00000000000000     
Ne    0.000000    0.000000    4.233416
Ne    0.000000    0.000000    0.000000
           2
 Time =    420.00000000000000     
Ne    0.000000    0.000000    4.233416
Ne    0.000000    0.000000    0.000000
           2
 Time =    421.00000000000000     
Ne    0.000000    0.000000    4.233416
Ne    0.000000    0.000000    0.000000
           2
 Time =    422.00000000000000     
Ne    0.000000    0.000000    4.233416
Ne    0.000000    0.000000    0.000000
           2
 Time =    423.00000000000000     
Ne    0.000000    0.000000    4.233416
Ne    0.000000    0.000000    0.000000
           2
 Time =    424.00000000000000     
Ne    0.000000    0.000000    4.233416
Ne    0.000000    0.000000    0.000000
           2
 Time =    425.00000000000000     
Ne    0.000000    0.000000    4.233416
Ne    0.000000    0.000000    0.000000
           2
 Time =    426.00000000000000     
Ne    0.000000    0.000000    4.233416
Ne    0.000000    0.000000    0.000000
           2
 Time =    427.00000000000000     
Ne    0.000000    0.000000    4.233416
Ne    0.000000    0.000000    0.000000
           2
 Time =    428.00000000000000     
Ne    0.000000    0.000000    4.233416
Ne    0.000000    0.000000    0.000000
           2
 Time =    429.00000000000000     
Ne    0.000000    0.000000    4.233416
Ne    0.000000    0.000000    0.000000
           2
 Time =    430.00000000000000     
Ne    0.000000    0.000000    4.233416
Ne    0.000000    0.000000    0.000000
           2
 Time =    431.00000000000000     
Ne    0.000000    0.000000    4.233416
Ne    0.000000    0.000000    0.000000
           2
 Time =    432.00000000000000     
Ne    0.000000    0.000000    4.233416
Ne    0.000000    0.000000    0.000000
           2
 Time =    433.00000000000000     
Ne    0.000000    0.000000    4.233416
Ne    0.000000    0.000000    0.000000
           2
 Time =    434.00000000000000     
Ne    0.000000    0.000000    4.233416
Ne    0.000000    0.000000    0.000000
           2
 Time =    435.00000000000000     
Ne    0.000000    0.000000    4.233416
Ne    0.000000    0.000000    0.000000
           2
 Time =    436.00000000000000     
Ne    0.000000    0.000000    4.233416
Ne    0.000000    0.000000    0.000000
           2
 Time =    437.00000000000000     
Ne    0.000000    0.000000    4.233416
Ne    0.000000    0.000000    0.000000
           2
 Time =    438.00000000000000     
Ne    0.000000    0.000000    4.233416
Ne    0.000000    0.000000    0.000000
           2
 Time =    439.00000000000000     
Ne    0.000000    0.000000    4.233416
Ne    0.000000    0.000000    0.000000
           2
 Time =    440.00000000000000     
Ne    0.000000    0.000000    4.233416
Ne    0.000000    0.000000    0.000000
           2
 Time =    441.00000000000000     
Ne    0.000000    0.000000    4.233416
Ne    0.000000    0.000000    0.000000
           2
 Time =    442.00000000000000     
Ne    0.000000    0.000000    4.233416
Ne    0.000000    0.000000    0.000000
           2
 Time =    443.00000000000000     
Ne    0.000000    0.000000    4.233416
Ne    0.000000    0.000000    0.000000
           2
 Time =    444.00000000000000     
Ne    0.000000    0.000000    4.233416
Ne    0.000000    0.000000    0.000000
           2
 Time =    445.00000000000000     
Ne    0.000000    0.000000    4.233416
Ne    0.000000    0.000000    0.000000
           2
 Time =    446.00000000000000     
Ne    0.000000    0.000000    4.233416
Ne    0.000000    0.000000    0.000000
           2
 Time =    447.00000000000000     
Ne    0.000000    0.000000    4.233416
Ne    0.000000    0.000000    0.000000
           2
 Time =    448.00000000000000     
Ne    0.000000    0.000000    4.233416
Ne    0.000000    0.000000    0.000000
           2
 Time =    449.00000000000000     
Ne    0.000000    0.000000    4.233416
Ne    0.000000    0.000000    0.000000
           2
 Time =    450.00000000000000     
Ne    0.000000    0.000000    4.233416
Ne    0.000000    0.000000    0.000000
           2
 Time =    451.00000000000000     
Ne    0.000000    0.000000    4.233416
Ne    0.000000    0.000000    0.000000
           2
 Time =    452.00000000000000     
Ne    0.000000    0.000000    4.233416
Ne    0.000000    0.000000    0.000000
           2
 Time =    453.00000000000000     
Ne    0.000000    0.000000    4.233416
Ne    0.000000    0.000000    0.000000
           2
 Time =    454.00000000000000     
Ne    0.000000    0.000000    4.233416
Ne    0.000000    0.000000    0.000000
           2
 Time =    455.00000000000000     
Ne    0.000000    0.000000    4.233416
Ne    0.000000    0.000000    0.000000
           2
 Time =    456.00000000000000     
Ne    0.000000    0.000000    4.233416
Ne    0.000000    0.000000    0.000000
           2
 Time =    457.00000000000000     
Ne    0.000000    0.000000    4.233416
Ne    0.000000    0.000000    0.000000
           2
 Time =    458.00000000000000     
Ne    0.000000    0.000000    4.233416
Ne    0.000000    0.000000    0.000000
           2
 Time =    459.00000000000000     
Ne    0.000000    0.000000    4.233416
Ne    0.000000    0.000000    0.000000
           2
 Time =    460.00000000000000     
Ne    0.000000    0.000000    4.233416
Ne    0.000000    0.000000    0.000000
           2
 Time =    461.00000000000000     
Ne    0.000000    0.000000    4.233416
Ne    0.000000    0.000000    0.000000
           2
 Time =    462.00000000000000     
Ne    0.000000    0.000000    4.233416
Ne    0.000000    0.000000    0.000000
           2
 Time =    463.00000000000000     
Ne    0.000000    0.000000    4.233416
Ne    0.000000    0.000000    0.000000
           2
 Time =    464.00000000000000     
Ne    0.000000    0.000000    4.233416
Ne    0.000000    0.000000    0.000000
           2
 Time =    465.00000000000000     
Ne    0.000000    0.000000    4.233416
Ne    0.000000    0.000000    0.000000
           2
 Time =    466.00000000000000     
Ne    0.000000    0.000000    4.233416
Ne    0.000000    0.000000    0.000000
           2
 Time =    467.00000000000000     
Ne    0.000000    0.000000    4.233416
Ne    0.000000    0.000000    0.000000
           2
 Time =    468.00000000000000     
Ne    0.000000    0.000000    4.233416
Ne    0.000000    0.000000    0.000000
           2
 Time =    469.00000000000000     
Ne    0.000000    0.000000    4.233416
Ne    0.000000    0.000000    0.000000
           2
 Time =    470.00000000000000     
Ne    0.000000    0.000000    4.233416
Ne    0.000000    0.000000    0.000000
           2
 Time =    471.00000000000000     
Ne    0.000000    0.000000    4.233416
Ne    0.000000    0.000000    0.000000
           2
 Time =    472.00000000000000     
Ne    0.000000    0.000000    4.233416
Ne    0.000000    0.000000    0.000000
           2
 Time =    473.00000000000000     
Ne    0.000000    0.000000    4.233416
Ne    0.000000    0.000000    0.000000
           2
 Time =    474.00000000000000     
Ne    0.000000    0.000000    4.233416
Ne    0.000000    0.000000    0.000000
           2
 Time =    475.00000000000000     
Ne    0.000000    0.000000    4.233416
Ne    0.000000    0.000000    0.000000
           2
 Time =    476.00000000000000     
Ne    0.000000    0.000000    4.233416
Ne    0.000000    0.000000    0.000000
           2
 Time =    477.00000000000000     
Ne    0.000000    0.000000    4.233416
Ne    0.000000    0.000000    0.000000
           2
 Time =    478.00000000000000     
Ne    0.000000    0.000000    4.233416
Ne    0.000000    0.000000    0.000000
           2
 Time =    479.00000000000000     
Ne    0.000000    0.000000    4.233416
Ne    0.000000    0.000000    0.000000
           2
 Time =    480.00000000000000     
Ne    0.000000    0.000000    4.233416
Ne    0.000000    0.000000    0.000000
           2
 Time =    481.00000000000000     
Ne    0.000000    0.000000    4.233416
Ne    0.000000    0.000000    0.000000
           2
 Time =    482.00000000000000     
Ne    0.000000    0.000000    4.233416
Ne    0.000000    0.000000    0.000000
           2
 Time =    483.00000000000000     
Ne    0.000000    0.000000    4.233416
Ne    0.000000    0.000000    0.000000
           2
 Time =    484.00000000000000     
Ne    0.000000    0.000000    4.233416
Ne    0.000000    0.000000    0.000000
           2
 Time =    485.00000000000000     
Ne    0.000000    0.000000    4.233416
Ne    0.000000    0.000000    0.000000
           2
 Time =    486.00000000000000     
Ne    0.000000    0.000000    4.233416
Ne    0.000000    0.000000    0.000000
           2
 Time =    487.00000000000000     
Ne    0.000000    0.000000    4.233416
Ne    0.000000    0.000000    0.000000
           2
 Time =    488.00000000000000     
Ne    0.000000    0.000000    4.233416
Ne    0.000000    0.000000    0.000000
           2
 Time =    489.00000000000000     
Ne    0.000000    0.000000    4.233416
Ne    0.000000    0.000000    0.000000
           2
 Time =    490.00000000000000     
Ne    0.000000    0.000000    4.233416
Ne    0.000000    0.000000    0.000000
           2
 Time =    491.00000000000000     
Ne    0.000000    0.000000    4.233416
Ne    0.000000    0.000000    0.000000
           2
 Time =    492.00000000000000     
Ne    0.000000    0.000000    4.233416
Ne    0.000000    0.000000    0.000000
           2
 Time =    493.00000000000000     
Ne    0.000000    0.000000    4.233416
Ne    0.000000    0.000000    0.000000
           2
 Time =    494.00000000000000     
Ne    0.000000    0.000000    4.233416
Ne    0.000000    0.000000    0.000000
           2
 Time =    495.00000000000000     
Ne    0.000000    0.000000    4.233416
Ne    0.000000    0.000000    0.000000
           2
 Time =    496.00000000000000     
Ne    0.000000    0.000000    4.233416
Ne    0.000000    0.000000    0.000000
           2
 Time =    497.00000000000000     
Ne    0.000000    0.000000    4.233416
Ne    0.000000    0.000000    0.000000
           2
 Time =    498.00000000000000     
Ne    0.000000    0.000000    4.233416
Ne    0.000000    0.000000    0.000000
           2
 Time =    499.00000000000000     
Ne    0.000000    0.000000    4.233416
Ne    0.000000    0.000000    0.000000
           2
 Time =    500.00000000000000     
Ne    0.000000    0.000000    4.233416
Ne    0.000000    0.000000    0.000000
           2
 Time =    501.00000000000000     
Ne    0.000000    0.000000    4.233416
Ne    0.000000    0.000000    0.000000
           2
 Time =    502.00000000000000     
Ne    0.000000    0.000000    4.233416
Ne    0.000000    0.000000    0.000000
           2
 Time =    503.00000000000000     
Ne    0.000000    0.000000    4.233416
Ne    0.000000    0.000000    0.000000
           2
 Time =    504.00000000000000     
Ne    0.000000    0.000000    4.233416
Ne    0.000000    0.000000    0.000000
           2
 Time =    505.00000000000000     
Ne    0.000000    0.000000    4.233416
Ne    0.000000    0.000000    0.000000
           2
 Time =    506.00000000000000     
Ne    0.000000    0.000000    4.233416
Ne    0.000000    0.000000    0.000000
           2
 Time =    507.00000000000000     
Ne    0.000000    0.000000    4.233416
Ne    0.000000    0.000000    0.000000
           2
 Time =    508.00000000000000     
Ne    0.000000    0.000000    4.233416
Ne    0.000000    0.000000    0.000000
           2
 Time =    509.00000000000000     
Ne    0.000000    0.000000    4.233416
Ne    0.000000    0.000000    0.000000
           2
 Time =    510.00000000000000     
Ne    0.000000    0.000000    4.233416
Ne    0.000000    0.000000    0.000000
           2
 Time =    511.00000000000000     
Ne    0.000000    0.000000    4.233416
Ne    0.000000    0.000000    0.000000
           2
 Time =    512.00000000000000     
Ne    0.000000    0.000000    4.233416
Ne    0.000000    0.000000    0.000000
           2
 Time =    513.00000000000000     
Ne    0.000000    0.000000    4.233416
Ne    0.000000    0.000000    0.000000
           2
 Time =    514.00000000000000     
Ne    0.000000    0.000000    4.233416
Ne    0.000000    0.000000    0.000000
           2
 Time =    515.00000000000000     
Ne    0.000000    0.000000    4.233416
Ne    0.000000    0.000000    0.000000
           2
 Time =    516.00000000000000     
Ne    0.000000    0.000000    4.233416
Ne    0.000000    0.000000    0.000000
           2
 Time =    517.00000000000000     
Ne    0.000000    0.000000    4.233416
Ne    0.000000    0.000000    0.000000
           2
 Time =    518.00000000000000     
Ne    0.000000    0.000000    4.233416
Ne    0.000000    0.000000    0.000000
           2
 Time =    519.00000000000000     
Ne    0.000000    0.000000    4.233416
Ne    0.000000    0.000000    0.000000
           2
 Time =    520.00000000000000     
Ne    0.000000    0.000000    4.233416
Ne    0.000000    0.000000    0.000000
           2
 Time =    521.00000000000000     
Ne    0.000000    0.000000    4.233416
Ne    0.000000    0.000000    0.000000
           2
 Time =    522.00000000000000     
Ne    0.000000    0.000000    4.233416
Ne    0.000000    0.000000    0.000000
           2
 Time =    523.00000000000000     
Ne    0.000000    0.000000    4.233416
Ne    0.000000    0.000000    0.000000
           2
 Time =    524.00000000000000     
Ne    0.000000    0.000000    4.233416
Ne    0.000000    0.000000    0.000000
           2
 Time =    525.00000000000000     
Ne    0.000000    0.000000    4.233416
Ne    0.000000    0.000000    0.000000
           2
 Time =    526.00000000000000     
Ne    0.000000    0.000000    4.233416
Ne    0.000000    0.000000    0.000000
           2
 Time =    527.00000000000000     
Ne    0.000000    0.000000    4.233416
Ne    0.000000    0.000000    0.000000
           2
 Time =    528.00000000000000     
Ne    0.000000    0.000000    4.233416
Ne    0.000000    0.000000    0.000000
           2
 Time =    529.00000000000000     
Ne    0.000000    0.000000    4.233416
Ne    0.000000    0.000000    0.000000
           2
 Time =    530.00000000000000     
Ne    0.000000    0.000000    4.233416
Ne    0.000000    0.000000    0.000000
           2
 Time =    531.00000000000000     
Ne    0.000000    0.000000    4.233416
Ne    0.000000    0.000000    0.000000
           2
 Time =    532.00000000000000     
Ne    0.000000    0.000000    4.233416
Ne    0.000000    0.000000    0.000000
           2
 Time =    533.00000000000000     
Ne    0.000000    0.000000    4.233416
Ne    0.000000    0.000000    0.000000
           2
 Time =    534.00000000000000     
Ne    0.000000    0.000000    4.233416
Ne    0.000000    0.000000    0.000000
           2
 Time =    535.00000000000000     
Ne    0.000000    0.000000    4.233416
Ne    0.000000    0.000000    0.000000
           2
 Time =    536.00000000000000     
Ne    0.000000    0.000000    4.233416
Ne    0.000000    0.000000    0.000000
           2
 Time =    537.00000000000000     
Ne    0.000000    0.000000    4.233416
Ne    0.000000    0.000000    0.000000
           2
 Time =    538.00000000000000     
Ne    0.000000    0.000000    4.233416
Ne    0.000000    0.000000    0.000000
           2
 Time =    539.00000000000000     
Ne    0.000000    0.000000    4.233416
Ne    0.000000    0.000000    0.000000
           2
 Time =    540.00000000000000     
Ne    0.000000    0.000000    4.233416
Ne    0.000000    0.000000    0.000000
           2
 Time =    541.00000000000000     
Ne    0.000000    0.000000    4.233416
Ne    0.000000    0.000000    0.000000
           2
 Time =    542.00000000000000     
Ne    0.000000    0.000000    4.233416
Ne    0.000000    0.000000    0.000000
           2
 Time =    543.00000000000000     
Ne    0.000000    0.000000    4.233416
Ne    0.000000    0.000000    0.000000
           2
 Time =    544.00000000000000     
Ne    0.000000    0.000000    4.233416
Ne    0.000000    0.000000    0.000000
           2
 Time =    545.00000000000000     
Ne    0.000000    0.000000    4.233416
Ne    0.000000    0.000000    0.000000
           2
 Time =    546.00000000000000     
Ne    0.000000    0.000000    4.233416
Ne    0.000000    0.000000    0.000000
           2
 Time =    547.00000000000000     
Ne    0.000000    0.000000    4.233416
Ne    0.000000    0.000000    0.000000
           2
 Time =    548.00000000000000     
Ne    0.000000    0.000000    4.233416
Ne    0.000000    0.000000    0.000000
           2
 Time =    549.00000000000000     
Ne    0.000000    0.000000    4.233416
Ne    0.000000    0.000000    0.000000
           2
 Time =    550.00000000000000     
Ne    0.000000    0.000000    4.233416
Ne    0.000000    0.000000    0.000000
           2
 Time =    551.00000000000000     
Ne    0.000000    0.000000    4.233416
Ne    0.000000    0.000000    0.000000
           2
 Time =    552.00000000000000     
Ne    0.000000    0.000000    4.233416
Ne    0.000000    0.000000    0.000000
           2
 Time =    553.00000000000000     
Ne    0.000000    0.000000    4.233416
Ne    0.000000    0.000000    0.000000
           2
 Time =    554.00000000000000     
Ne    0.000000    0.000000    4.233416
Ne    0.000000    0.000000    0.000000
           2
 Time =    555.00000000000000     
Ne    0.000000    0.000000    4.233416
Ne    0.000000    0.000000    0.000000
           2
 Time =    556.00000000000000     
Ne    0.000000    0.000000    4.233416
Ne    0.000000    0.000000    0.000000
           2
 Time =    557.00000000000000     
Ne    0.000000    0.000000    4.233416
Ne    0.000000    0.000000    0.000000
           2
 Time =    558.00000000000000     
Ne    0.000000    0.000000    4.233416
Ne    0.000000    0.000000    0.000000
           2
 Time =    559.00000000000000     
Ne    0.000000    0.000000    4.233416
Ne    0.000000    0.000000    0.000000
           2
 Time =    560.00000000000000     
Ne    0.000000    0.000000    4.233416
Ne    0.000000    0.000000    0.000000
           2
 Time =    561.00000000000000     
Ne    0.000000    0.000000    4.233416
Ne    0.000000    0.000000    0.000000
           2
 Time =    562.00000000000000     
Ne    0.000000    0.000000    4.233416
Ne    0.000000    0.000000    0.000000
           2
 Time =    563.00000000000000     
Ne    0.000000    0.000000    4.233416
Ne    0.000000    0.000000    0.000000
           2
 Time =    564.00000000000000     
Ne    0.000000    0.000000    4.233416
Ne    0.000000    0.000000    0.000000
           2
 Time =    565.00000000000000     
Ne    0.000000    0.000000    4.233416
Ne    0.000000    0.000000    0.000000
           2
 Time =    566.00000000000000     
Ne    0.000000    0.000000    4.233416
Ne    0.000000    0.000000    0.000000
           2
 Time =    567.00000000000000     
Ne    0.000000    0.000000    4.233416
Ne    0.000000    0.000000    0.000000
           2
 Time =    568.00000000000000     
Ne    0.000000    0.000000    4.233416
Ne    0.000000    0.000000    0.000000
           2
 Time =    569.00000000000000     
Ne    0.000000    0.000000    4.233416
Ne    0.000000    0.000000    0.000000
           2
 Time =    570.00000000000000     
Ne    0.000000    0.000000    4.233416
Ne    0.000000    0.000000    0.000000
           2
 Time =    571.00000000000000     
Ne    0.000000    0.000000    4.233416
Ne    0.000000    0.000000    0.000000
           2
 Time =    572.00000000000000     
Ne    0.000000    0.000000    4.233416
Ne    0.000000    0.000000    0.000000
           2
 Time =    573.00000000000000     
Ne    0.000000    0.000000    4.233416
Ne    0.000000    0.000000    0.000000
           2
 Time =    574.00000000000000     
Ne    0.000000    0.000000    4.233416
Ne    0.000000    0.000000    0.000000
           2
 Time =    575.00000000000000     
Ne    0.000000    0.000000    4.233416
Ne    0.000000    0.000000    0.000000
           2
 Time =    576.00000000000000     
Ne    0.000000    0.000000    4.233416
Ne    0.000000    0.000000    0.000000
           2
 Time =    577.00000000000000     
Ne    0.000000    0.000000    4.233416
Ne    0.000000    0.000000    0.000000
           2
 Time =    578.00000000000000     
Ne    0.000000    0.000000    4.233416
Ne    0.000000    0.000000    0.000000
           2
 Time =    579.00000000000000     
Ne    0.000000    0.000000    4.233416
Ne    0.000000    0.000000    0.000000
           2
 Time =    580.00000000000000     
Ne    0.000000    0.000000    4.233416
Ne    0.000000    0.000000    0.000000
           2
 Time =    581.00000000000000     
Ne    0.000000    0.000000    4.233416
Ne    0.000000    0.000000    0.000000
           2
 Time =    582.00000000000000     
Ne    0.000000    0.000000    4.233416
Ne    0.000000    0.000000    0.000000
           2
 Time =    583.00000000000000     
Ne    0.000000    0.000000    4.233416
Ne    0.000000    0.000000    0.000000
           2
 Time =    584.00000000000000     
Ne    0.000000    0.000000    4.233416
Ne    0.000000    0.000000    0.000000
           2
 Time =    585.00000000000000     
Ne    0.000000    0.000000    4.233416
Ne    0.000000    0.000000    0.000000
           2
 Time =    586.00000000000000     
Ne    0.000000    0.000000    4.233416
Ne    0.000000    0.000000    0.000000
           2
 Time =    587.00000000000000     
Ne    0.000000    0.000000    4.233416
Ne    0.000000    0.000000    0.000000
           2
 Time =    588.00000000000000     
Ne    0.000000    0.000000    4.233416
Ne    0.000000    0.000000    0.000000
           2
 Time =    589.00000000000000     
Ne    0.000000    0.000000    4.233416
Ne    0.000000    0.000000    0.000000
           2
 Time =    590.00000000000000     
Ne    0.000000    0.000000    4.233416
Ne    0.000000    0.000000    0.000000
           2
 Time =    591.00000000000000     
Ne    0.000000    0.000000    4.233416
Ne    0.000000    0.000000    0.000000
           2
 Time =    592.00000000000000     
Ne    0.000000    0.000000    4.233416
Ne    0.000000    0.000000    0.000000
           2
 Time =    593.00000000000000     
Ne    0.000000    0.000000    4.233416
Ne    0.000000    0.000000    0.000000
           2
 Time =    594.00000000000000     
Ne    0.000000    0.000000    4.233416
Ne    0.000000    0.000000    0.000000
           2
 Time =    595.00000000000000     
Ne    0.000000    0.000000    4.233416
Ne    0.000000    0.000000    0.000000
           2
 Time =    596.00000000000000     
Ne    0.000000    0.000000    4.233416
Ne    0.000000    0.000000    0.000000
           2
 Time =    597.00000000000000     
Ne    0.000000    0.000000    4.233416
Ne    0.000000    0.000000    0.000000
           2
 Time =    598.00000000000000     
Ne    0.000000    0.000000    4.233416
Ne    0.000000    0.000000    0.000000
           2
 Time =    599.00000000000000     
Ne    0.000000    0.000000    4.233416
Ne    0.000000    0.000000    0.000000
           2
 Time =    600.00000000000000     
Ne    0.000000    0.000000    4.233416
Ne    0.000000    0.000000    0.000000
           2
 Time =    601.00000000000000     
Ne    0.000000    0.000000    4.233416
Ne    0.000000    0.000000    0.000000
           2
 Time =    602.00000000000000     
Ne    0.000000    0.000000    4.233416
Ne    0.000000    0.000000    0.000000
           2
 Time =    603.00000000000000     
Ne    0.000000    0.000000    4.233416
Ne    0.000000    0.000000    0.000000
           2
 Time =    604.00000000000000     
Ne    0.000000    0.000000    4.233416
Ne    0.000000    0.000000    0.000000
           2
 Time =    605.00000000000000     
Ne    0.000000    0.000000    4.233416
Ne    0.000000    0.000000    0.000000
           2
 Time =    606.00000000000000     
Ne    0.000000    0.000000    4.233416
Ne    0.000000    0.000000    0.000000
           2
 Time =    607.00000000000000     
Ne    0.000000    0.000000    4.233416
Ne    0.000000    0.000000    0.000000
           2
 Time =    608.00000000000000     
Ne    0.000000    0.000000    4.233416
Ne    0.000000    0.000000    0.000000
           2
 Time =    609.00000000000000     
Ne    0.000000    0.000000    4.233416
Ne    0.000000    0.000000    0.000000
           2
 Time =    610.00000000000000     
Ne    0.000000    0.000000    4.233416
Ne    0.000000    0.000000    0.000000
           2
 Time =    611.00000000000000     
Ne    0.000000    0.000000    4.233416
Ne    0.000000    0.000000    0.000000
           2
 Time =    612.00000000000000     
Ne    0.000000    0.000000    4.233416
Ne    0.000000    0.000000    0.000000
           2
 Time =    613.00000000000000     
Ne    0.000000    0.000000    4.233416
Ne    0.000000    0.000000    0.000000
           2
 Time =    614.00000000000000     
Ne    0.000000    0.000000    4.233416
Ne    0.000000    0.000000    0.000000
           2
 Time =    615.00000000000000     
Ne    0.000000    0.000000    4.233416
Ne    0.000000    0.000000    0.000000
           2
 Time =    616.00000000000000     
Ne    0.000000    0.000000    4.233416
Ne    0.000000    0.000000    0.000000
           2
 Time =    617.00000000000000     
Ne    0.000000    0.000000    4.233416
Ne    0.000000    0.000000    0.000000
           2
 Time =    618.00000000000000     
Ne    0.000000    0.000000    4.233416
Ne    0.000000    0.000000    0.000000
           2
 Time =    619.00000000000000     
Ne    0.000000    0.000000    4.233416
Ne    0.000000    0.000000    0.000000
           2
 Time =    620.00000000000000     
Ne    0.000000    0.000000    4.233416
Ne    0.000000    0.000000    0.000000
           2
 Time =    621.00000000000000     
Ne    0.000000    0.000000    4.233416
Ne    0.000000    0.000000    0.000000
           2
 Time =    622.00000000000000     
Ne    0.000000    0.000000    4.233416
Ne    0.000000    0.000000    0.000000
           2
 Time =    623.00000000000000     
Ne    0.000000    0.000000    4.233416
Ne    0.000000    0.000000    0.000000
           2
 Time =    624.00000000000000     
Ne    0.000000    0.000000    4.233416
Ne    0.000000    0.000000    0.000000
           2
 Time =    625.00000000000000     
Ne    0.000000    0.000000    4.233416
Ne    0.000000    0.000000    0.000000
           2
 Time =    626.00000000000000     
Ne    0.000000    0.000000    4.233416
Ne    0.000000    0.000000    0.000000
           2
 Time =    627.00000000000000     
Ne    0.000000    0.000000    4.233416
Ne    0.000000    0.000000    0.000000
           2
 Time =    628.00000000000000     
Ne    0.000000    0.000000    4.233416
Ne    0.000000    0.000000    0.000000
           2
 Time =    629.00000000000000     
Ne    0.000000    0.000000    4.233416
Ne    0.000000    0.000000    0.000000
           2
 Time =    630.00000000000000     
Ne    0.000000    0.000000    4.233416
Ne    0.000000    0.000000    0.000000
           2
 Time =    631.00000000000000     
Ne    0.000000    0.000000    4.233416
Ne    0.000000    0.000000    0.000000
           2
 Time =    632.00000000000000     
Ne    0.000000    0.000000    4.233416
Ne    0.000000    0.000000    0.000000
           2
 Time =    633.00000000000000     
Ne    0.000000    0.000000    4.233416
Ne    0.000000    0.000000    0.000000
           2
 Time =    634.00000000000000     
Ne    0.000000    0.000000    4.233416
Ne    0.000000    0.000000    0.000000
           2
 Time =    635.00000000000000     
Ne    0.000000    0.000000    4.233416
Ne    0.000000    0.000000    0.000000
           2
 Time =    636.00000000000000     
Ne    0.000000    0.000000    4.233416
Ne    0.000000    0.000000    0.000000
           2
 Time =    637.00000000000000     
Ne    0.000000    0.000000    4.233416
Ne    0.000000    0.000000    0.000000
           2
 Time =    638.00000000000000     
Ne    0.000000    0.000000    4.233416
Ne    0.000000    0.000000    0.000000
           2
 Time =    639.00000000000000     
Ne    0.000000    0.000000    4.233416
Ne    0.000000    0.000000    0.000000
           2
 Time =    640.00000000000000     
Ne    0.000000    0.000000    4.233416
Ne    0.000000    0.000000    0.000000
           2
 Time =    641.00000000000000     
Ne    0.000000    0.000000    4.233416
Ne    0.000000    0.000000    0.000000
           2
 Time =    642.00000000000000     
Ne    0.000000    0.000000    4.233416
Ne    0.000000    0.000000    0.000000
           2
 Time =    643.00000000000000     
Ne    0.000000    0.000000    4.233416
Ne    0.000000    0.000000    0.000000
           2
 Time =    644.00000000000000     
Ne    0.000000    0.000000    4.233416
Ne    0.000000    0.000000    0.000000
           2
 Time =    645.00000000000000     
Ne    0.000000    0.000000    4.233416
Ne    0.000000    0.000000    0.000000
           2
 Time =    646.00000000000000     
Ne    0.000000    0.000000    4.233416
Ne    0.000000    0.000000    0.000000
           2
 Time =    647.00000000000000     
Ne    0.000000    0.000000    4.233416
Ne    0.000000    0.000000    0.000000
           2
 Time =    648.00000000000000     
Ne    0.000000    0.000000    4.233416
Ne    0.000000    0.000000    0.000000
           2
 Time =    649.00000000000000     
Ne    0.000000    0.000000    4.233416
Ne    0.000000    0.000000    0.000000
           2
 Time =    650.00000000000000     
Ne    0.000000    0.000000    4.233416
Ne    0.000000    0.000000    0.000000
           2
 Time =    651.00000000000000     
Ne    0.000000    0.000000    4.233416
Ne    0.000000    0.000000    0.000000
           2
 Time =    652.00000000000000     
Ne    0.000000    0.000000    4.233416
Ne    0.000000    0.000000    0.000000
           2
 Time =    653.00000000000000     
Ne    0.000000    0.000000    4.233416
Ne    0.000000    0.000000    0.000000
           2
 Time =    654.00000000000000     
Ne    0.000000    0.000000    4.233416
Ne    0.000000    0.000000    0.000000
           2
 Time =    655.00000000000000     
Ne    0.000000    0.000000    4.233416
Ne    0.000000    0.000000    0.000000
           2
 Time =    656.00000000000000     
Ne    0.000000    0.000000    4.233416
Ne    0.000000    0.000000    0.000000
           2
 Time =    657.00000000000000     
Ne    0.000000    0.000000    4.233416
Ne    0.000000    0.000000    0.000000
           2
 Time =    658.00000000000000     
Ne    0.000000    0.000000    4.233416
Ne    0.000000    0.000000    0.000000
           2
 Time =    659.00000000000000     
Ne    0.000000    0.000000    4.233416
Ne    0.000000    0.000000    0.000000
           2
 Time =    660.00000000000000     
Ne    0.000000    0.000000    4.233416
Ne    0.000000    0.000000    0.000000
           2
 Time =    661.00000000000000     
Ne    0.000000    0.000000    4.233416
Ne    0.000000    0.000000    0.000000
           2
 Time =    662.00000000000000     
Ne    0.000000    0.000000    4.233416
Ne    0.000000    0.000000    0.000000
           2
 Time =    663.00000000000000     
Ne    0.000000    0.000000    4.233416
Ne    0.000000    0.000000    0.000000
           2
 Time =    664.00000000000000     
Ne    0.000000    0.000000    4.233416
Ne    0.000000    0.000000    0.000000
           2
 Time =    665.00000000000000     
Ne    0.000000    0.000000    4.233416
Ne    0.000000    0.000000    0.000000
           2
 Time =    666.00000000000000     
Ne    0.000000    0.000000    4.233416
Ne    0.000000    0.000000    0.000000
           2
 Time =    667.00000000000000     
Ne    0.000000    0.000000    4.233416
Ne    0.000000    0.000000    0.000000
           2
 Time =    668.00000000000000     
Ne    0.000000    0.000000    4.233416
Ne    0.000000    0.000000    0.000000
           2
 Time =    669.00000000000000     
Ne    0.000000    0.000000    4.233416
Ne    0.000000    0.000000    0.000000
           2
 Time =    670.00000000000000     
Ne    0.000000    0.000000    4.233416
Ne    0.000000    0.000000    0.000000
           2
 Time =    671.00000000000000     
Ne    0.000000    0.000000    4.233416
Ne    0.000000    0.000000    0.000000
           2
 Time =    672.00000000000000     
Ne    0.000000    0.000000    4.233416
Ne    0.000000    0.000000    0.000000
           2
 Time =    673.00000000000000     
Ne    0.000000    0.000000    4.233416
Ne    0.000000    0.000000    0.000000
           2
 Time =    674.00000000000000     
Ne    0.000000    0.000000    4.233416
Ne    0.000000    0.000000    0.000000
           2
 Time =    675.00000000000000     
Ne    0.000000    0.000000    4.233416
Ne    0.000000    0.000000    0.000000
           2
 Time =    676.00000000000000     
Ne    0.000000    0.000000    4.233416
Ne    0.000000    0.000000    0.000000
           2
 Time =    677.00000000000000     
Ne    0.000000    0.000000    4.233416
Ne    0.000000    0.000000    0.000000
           2
 Time =    678.00000000000000     
Ne    0.000000    0.000000    4.233416
Ne    0.000000    0.000000    0.000000
           2
 Time =    679.00000000000000     
Ne    0.000000    0.000000    4.233416
Ne    0.000000    0.000000    0.000000
           2
 Time =    680.00000000000000     
Ne    0.000000    0.000000    4.233416
Ne    0.000000    0.000000    0.000000
           2
 Time =    681.00000000000000     
Ne    0.000000    0.000000    4.233416
Ne    0.000000    0.000000    0.000000
           2
 Time =    682.00000000000000     
Ne    0.000000    0.000000    4.233416
Ne    0.000000    0.000000    0.000000
           2
 Time =    683.00000000000000     
Ne    0.000000    0.000000    4.233416
Ne    0.000000    0.000000    0.000000
           2
 Time =    684.00000000000000     
Ne    0.000000    0.000000    4.233416
Ne    0.000000    0.000000    0.000000
           2
 Time =    685.00000000000000     
Ne    0.000000    0.000000    4.233416
Ne    0.000000    0.000000    0.000000
           2
 Time =    686.00000000000000     
Ne    0.000000    0.000000    4.233416
Ne    0.000000    0.000000    0.000000
           2
 Time =    687.00000000000000     
Ne    0.000000    0.000000    4.233416
Ne    0.000000    0.000000    0.000000
           2
 Time =    688.00000000000000     
Ne    0.000000    0.000000    4.233416
Ne    0.000000    0.000000    0.000000
           2
 Time =    689.00000000000000     
Ne    0.000000    0.000000    4.233416
Ne    0.000000    0.000000    0.000000
           2
 Time =    690.00000000000000     
Ne    0.000000    0.000000    4.233416
Ne    0.000000    0.000000    0.000000
           2
 Time =    691.00000000000000     
Ne    0.000000    0.000000    4.233416
Ne    0.000000    0.000000    0.000000
           2
 Time =    692.00000000000000     
Ne    0.000000    0.000000    4.233416
Ne    0.000000    0.000000    0.000000
           2
 Time =    693.00000000000000     
Ne    0.000000    0.000000    4.233416
Ne    0.000000    0.000000    0.000000
           2
 Time =    694.00000000000000     
Ne    0.000000    0.000000    4.233416
Ne    0.000000    0.000000    0.000000
           2
 Time =    695.00000000000000     
Ne    0.000000    0.000000    4.233416
Ne    0.000000    0.000000    0.000000
           2
 Time =    696.00000000000000     
Ne    0.000000    0.000000    4.233416
Ne    0.000000    0.000000    0.000000
           2
 Time =    697.00000000000000     
Ne    0.000000    0.000000    4.233416
Ne    0.000000    0.000000    0.000000
           2
 Time =    698.00000000000000     
Ne    0.000000    0.000000    4.233416
Ne    0.000000    0.000000    0.000000
           2
 Time =    699.00000000000000     
Ne    0.000000    0.000000    4.233416
Ne    0.000000    0.000000    0.000000
           2
 Time =    700.00000000000000     
Ne    0.000000    0.000000    4.233416
Ne    0.000000    0.000000    0.000000
           2
 Time =    701.00000000000000     
Ne    0.000000    0.000000    4.233416
Ne    0.000000    0.000000    0.000000
           2
 Time =    702.00000000000000     
Ne    0.000000    0.000000    4.233416
Ne    0.000000    0.000000    0.000000
           2
 Time =    703.00000000000000     
Ne    0.000000    0.000000    4.233416
Ne    0.000000    0.000000    0.000000
           2
 Time =    704.00000000000000     
Ne    0.000000    0.000000    4.233416
Ne    0.000000    0.000000    0.000000
           2
 Time =    705.00000000000000     
Ne    0.000000    0.000000    4.233416
Ne    0.000000    0.000000    0.000000
           2
 Time =    706.00000000000000     
Ne    0.000000    0.000000    4.233416
Ne    0.000000    0.000000    0.000000
           2
 Time =    707.00000000000000     
Ne    0.000000    0.000000    4.233416
Ne    0.000000    0.000000    0.000000
           2
 Time =    708.00000000000000     
Ne    0.000000    0.000000    4.233416
Ne    0.000000    0.000000    0.000000
           2
 Time =    709.00000000000000     
Ne    0.000000    0.000000    4.233416
Ne    0.000000    0.000000    0.000000
           2
 Time =    710.00000000000000     
Ne    0.000000    0.000000    4.233416
Ne    0.000000    0.000000    0.000000
           2
 Time =    711.00000000000000     
Ne    0.000000    0.000000    4.233416
Ne    0.000000    0.000000    0.000000
           2
 Time =    712.00000000000000     
Ne    0.000000    0.000000    4.233416
Ne    0.000000    0.000000    0.000000
           2
 Time =    713.00000000000000     
Ne    0.000000    0.000000    4.233416
Ne    0.000000    0.000000    0.000000
           2
 Time =    714.00000000000000     
Ne    0.000000    0.000000    4.233416
Ne    0.000000    0.000000    0.000000
           2
 Time =    715.00000000000000     
Ne    0.000000    0.000000    4.233416
Ne    0.000000    0.000000    0.000000
           2
 Time =    716.00000000000000     
Ne    0.000000    0.000000    4.233416
Ne    0.000000    0.000000    0.000000
           2
 Time =    717.00000000000000     
Ne    0.000000    0.000000    4.233416
Ne    0.000000    0.000000    0.000000
           2
 Time =    718.00000000000000     
Ne    0.000000    0.000000    4.233416
Ne    0.000000    0.000000    0.000000
           2
 Time =    719.00000000000000     
Ne    0.000000    0.000000    4.233416
Ne    0.000000    0.000000    0.000000
           2
 Time =    720.00000000000000     
Ne    0.000000    0.000000    4.233416
Ne    0.000000    0.000000    0.000000
           2
 Time =    721.00000000000000     
Ne    0.000000    0.000000    4.233416
Ne    0.000000    0.000000    0.000000
           2
 Time =    722.00000000000000     
Ne    0.000000    0.000000    4.233416
Ne    0.000000    0.000000    0.000000
           2
 Time =    723.00000000000000     
Ne    0.000000    0.000000    4.233416
Ne    0.000000    0.000000    0.000000
           2
 Time =    724.00000000000000     
Ne    0.000000    0.000000    4.233416
Ne    0.000000    0.000000    0.000000
           2
 Time =    725.00000000000000     
Ne    0.000000    0.000000    4.233416
Ne    0.000000    0.000000    0.000000
           2
 Time =    726.00000000000000     
Ne    0.000000    0.000000    4.233416
Ne    0.000000    0.000000    0.000000
           2
 Time =    727.00000000000000     
Ne    0.000000    0.000000    4.233416
Ne    0.000000    0.000000    0.000000
           2
 Time =    728.00000000000000     
Ne    0.000000    0.000000    4.233416
Ne    0.000000    0.000000    0.000000
           2
 Time =    729.00000000000000     
Ne    0.000000    0.000000    4.233416
Ne    0.000000    0.000000    0.000000
           2
 Time =    730.00000000000000     
Ne    0.000000    0.000000    4.233416
Ne    0.000000    0.000000    0.000000
           2
 Time =    731.00000000000000     
Ne    0.000000    0.000000    4.233416
Ne    0.000000    0.000000    0.000000
           2
 Time =    732.00000000000000     
Ne    0.000000    0.000000    4.233416
Ne    0.000000    0.000000    0.000000
           2
 Time =    733.00000000000000     
Ne    0.000000    0.000000    4.233416
Ne    0.000000    0.000000    0.000000
           2
 Time =    734.00000000000000     
Ne    0.000000    0.000000    4.233416
Ne    0.000000    0.000000    0.000000
           2
 Time =    735.00000000000000     
Ne    0.000000    0.000000    4.233416
Ne    0.000000    0.000000    0.000000
           2
 Time =    736.00000000000000     
Ne    0.000000    0.000000    4.233416
Ne    0.000000    0.000000    0.000000
           2
 Time =    737.00000000000000     
Ne    0.000000    0.000000    4.233416
Ne    0.000000    0.000000    0.000000
           2
 Time =    738.00000000000000     
Ne    0.000000    0.000000    4.233416
Ne    0.000000    0.000000    0.000000
           2
 Time =    739.00000000000000     
Ne    0.000000    0.000000    4.233416
Ne    0.000000    0.000000    0.000000
           2
 Time =    740.00000000000000     
Ne    0.000000    0.000000    4.233416
Ne    0.000000    0.000000    0.000000
           2
 Time =    741.00000000000000     
Ne    0.000000    0.000000    4.233416
Ne    0.000000    0.000000    0.000000
           2
 Time =    742.00000000000000     
Ne    0.000000    0.000000    4.233416
Ne    0.000000    0.000000    0.000000
           2
 Time =    743.00000000000000     
Ne    0.000000    0.000000    4.233416
Ne    0.000000    0.000000    0.000000
           2
 Time =    744.00000000000000     
Ne    0.000000    0.000000    4.233416
Ne    0.000000    0.000000    0.000000
           2
 Time =    745.00000000000000     
Ne    0.000000    0.000000    4.233416
Ne    0.000000    0.000000    0.000000
           2
 Time =    746.00000000000000     
Ne    0.000000    0.000000    4.233416
Ne    0.000000    0.000000    0.000000
           2
 Time =    747.00000000000000     
Ne    0.000000    0.000000    4.233416
Ne    0.000000    0.000000    0.000000
           2
 Time =    748.00000000000000     
Ne    0.000000    0.000000    4.233416
Ne    0.000000    0.000000    0.000000
           2
 Time =    749.00000000000000     
Ne    0.000000    0.000000    4.233416
Ne    0.000000    0.000000    0.000000
           2
 Time =    750.00000000000000     
Ne    0.000000    0.000000    4.233416
Ne    0.000000    0.000000    0.000000
           2
 Time =    751.00000000000000     
Ne    0.000000    0.000000    4.233416
Ne    0.000000    0.000000    0.000000
           2
 Time =    752.00000000000000     
Ne    0.000000    0.000000    4.233416
Ne    0.000000    0.000000    0.000000
           2
 Time =    753.00000000000000     
Ne    0.000000    0.000000    4.233416
Ne    0.000000    0.000000    0.000000
           2
 Time =    754.00000000000000     
Ne    0.000000    0.000000    4.233416
Ne    0.000000    0.000000    0.000000
           2
 Time =    755.00000000000000     
Ne    0.000000    0.000000    4.233416
Ne    0.000000    0.000000    0.000000
           2
 Time =    756.00000000000000     
Ne    0.000000    0.000000    4.233416
Ne    0.000000    0.000000    0.000000
           2
 Time =    757.00000000000000     
Ne    0.000000    0.000000    4.233416
Ne    0.000000    0.000000    0.000000
           2
 Time =    758.00000000000000     
Ne    0.000000    0.000000    4.233416
Ne    0.000000    0.000000    0.000000
           2
 Time =    759.00000000000000     
Ne    0.000000    0.000000    4.233416
Ne    0.000000    0.000000    0.000000
           2
 Time =    760.00000000000000     
Ne    0.000000    0.000000    4.233416
Ne    0.000000    0.000000    0.000000
           2
 Time =    761.00000000000000     
Ne    0.000000    0.000000    4.233416
Ne    0.000000    0.000000    0.000000
           2
 Time =    762.00000000000000     
Ne    0.000000    0.000000    4.233416
Ne    0.000000    0.000000    0.000000
           2
 Time =    763.00000000000000     
Ne    0.000000    0.000000    4.233416
Ne    0.000000    0.000000    0.000000
           2
 Time =    764.00000000000000     
Ne    0.000000    0.000000    4.233416
Ne    0.000000    0.000000    0.000000
           2
 Time =    765.00000000000000     
Ne    0.000000    0.000000    4.233416
Ne    0.000000    0.000000    0.000000
           2
 Time =    766.00000000000000     
Ne    0.000000    0.000000    4.233416
Ne    0.000000    0.000000    0.000000
           2
 Time =    767.00000000000000     
Ne    0.000000    0.000000    4.233416
Ne    0.000000    0.000000    0.000000
           2
 Time =    768.00000000000000     
Ne    0.000000    0.000000    4.233416
Ne    0.000000    0.000000    0.000000
           2
 Time =    769.00000000000000     
Ne    0.000000    0.000000    4.233416
Ne    0.000000    0.000000    0.000000
           2
 Time =    770.00000000000000     
Ne    0.000000    0.000000    4.233416
Ne    0.000000    0.000000    0.000000
           2
 Time =    771.00000000000000     
Ne    0.000000    0.000000    4.233416
Ne    0.000000    0.000000    0.000000
           2
 Time =    772.00000000000000     
Ne    0.000000    0.000000    4.233416
Ne    0.000000    0.000000    0.000000
           2
 Time =    773.00000000000000     
Ne    0.000000    0.000000    4.233416
Ne    0.000000    0.000000    0.000000
           2
 Time =    774.00000000000000     
Ne    0.000000    0.000000    4.233416
Ne    0.000000    0.000000    0.000000
           2
 Time =    775.00000000000000     
Ne    0.000000    0.000000    4.233416
Ne    0.000000    0.000000    0.000000
           2
 Time =    776.00000000000000     
Ne    0.000000    0.000000    4.233416
Ne    0.000000    0.000000    0.000000
           2
 Time =    777.00000000000000     
Ne    0.000000    0.000000    4.233416
Ne    0.000000    0.000000    0.000000
           2
 Time =    778.00000000000000     
Ne    0.000000    0.000000    4.233416
Ne    0.000000    0.000000    0.000000
           2
 Time =    779.00000000000000     
Ne    0.000000    0.000000    4.233416
Ne    0.000000    0.000000    0.000000
           2
 Time =    780.00000000000000     
Ne    0.000000    0.000000    4.233416
Ne    0.000000    0.000000    0.000000
           2
 Time =    781.00000000000000     
Ne    0.000000    0.000000    4.233416
Ne    0.000000    0.000000    0.000000
           2
 Time =    782.00000000000000     
Ne    0.000000    0.000000    4.233416
Ne    0.000000    0.000000    0.000000
           2
 Time =    783.00000000000000     
Ne    0.000000    0.000000    4.233416
Ne    0.000000    0.000000    0.000000
           2
 Time =    784.00000000000000     
Ne    0.000000    0.000000    4.233416
Ne    0.000000    0.000000    0.000000
           2
 Time =    785.00000000000000     
Ne    0.000000    0.000000    4.233416
Ne    0.000000    0.000000    0.000000
           2
 Time =    786.00000000000000     
Ne    0.000000    0.000000    4.233416
Ne    0.000000    0.000000    0.000000
           2
 Time =    787.00000000000000     
Ne    0.000000    0.000000    4.233416
Ne    0.000000    0.000000    0.000000
           2
 Time =    788.00000000000000     
Ne    0.000000    0.000000    4.233416
Ne    0.000000    0.000000    0.000000
           2
 Time =    789.00000000000000     
Ne    0.000000    0.000000    4.233416
Ne    0.000000    0.000000    0.000000
           2
 Time =    790.00000000000000     
Ne    0.000000    0.000000    4.233416
Ne    0.000000    0.000000    0.000000
           2
 Time =    791.00000000000000     
Ne    0.000000    0.000000    4.233416
Ne    0.000000    0.000000    0.000000
           2
 Time =    792.00000000000000     
Ne    0.000000    0.000000    4.233416
Ne    0.000000    0.000000    0.000000
           2
 Time =    793.00000000000000     
Ne    0.000000    0.000000    4.233416
Ne    0.000000    0.000000    0.000000
           2
 Time =    794.00000000000000     
Ne    0.000000    0.000000    4.233416
Ne    0.000000    0.000000    0.000000
           2
 Time =    795.00000000000000     
Ne    0.000000    0.000000    4.233416
Ne    0.000000    0.000000    0.000000
           2
 Time =    796.00000000000000     
Ne    0.000000    0.000000    4.233416
Ne    0.000000    0.000000    0.000000
           2
 Time =    797.00000000000000     
Ne    0.000000    0.000000    4.233416
Ne    0.000000    0.000000    0.000000
           2
 Time =    798.00000000000000     
Ne    0.000000    0.000000    4.233416
Ne    0.000000    0.000000    0.000000
           2
 Time =    799.00000000000000     
Ne    0.000000    0.000000    4.233416
Ne    0.000000    0.000000    0.000000
           2
 Time =    800.00000000000000     
Ne    0.000000    0.000000    4.233416
Ne    0.000000    0.000000    0.000000
           2
 Time =    801.00000000000000     
Ne    0.000000    0.000000    4.233416
Ne    0.000000    0.000000    0.000000
           2
 Time =    802.00000000000000     
Ne    0.000000    0.000000    4.233416
Ne    0.000000    0.000000    0.000000
           2
 Time =    803.00000000000000     
Ne    0.000000    0.000000    4.233416
Ne    0.000000    0.000000    0.000000
           2
 Time =    804.00000000000000     
Ne    0.000000    0.000000    4.233416
Ne    0.000000    0.000000    0.000000
           2
 Time =    805.00000000000000     
Ne    0.000000    0.000000    4.233416
Ne    0.000000    0.000000    0.000000
           2
 Time =    806.00000000000000     
Ne    0.000000    0.000000    4.233416
Ne    0.000000    0.000000    0.000000
           2
 Time =    807.00000000000000     
Ne    0.000000    0.000000    4.233416
Ne    0.000000    0.000000    0.000000
           2
 Time =    808.00000000000000     
Ne    0.000000    0.000000    4.233416
Ne    0.000000    0.000000    0.000000
           2
 Time =    809.00000000000000     
Ne    0.000000    0.000000    4.233416
Ne    0.000000    0.000000    0.000000
           2
 Time =    810.00000000000000     
Ne    0.000000    0.000000    4.233416
Ne    0.000000    0.000000    0.000000
           2
 Time =    811.00000000000000     
Ne    0.000000    0.000000    4.233416
Ne    0.000000    0.000000    0.000000
           2
 Time =    812.00000000000000     
Ne    0.000000    0.000000    4.233416
Ne    0.000000    0.000000    0.000000
           2
 Time =    813.00000000000000     
Ne    0.000000    0.000000    4.233416
Ne    0.000000    0.000000    0.000000
           2
 Time =    814.00000000000000     
Ne    0.000000    0.000000    4.233416
Ne    0.000000    0.000000    0.000000
           2
 Time =    815.00000000000000     
Ne    0.000000    0.000000    4.233416
Ne    0.000000    0.000000    0.000000
           2
 Time =    816.00000000000000     
Ne    0.000000    0.000000    4.233416
Ne    0.000000    0.000000    0.000000
           2
 Time =    817.00000000000000     
Ne    0.000000    0.000000    4.233416
Ne    0.000000    0.000000    0.000000
           2
 Time =    818.00000000000000     
Ne    0.000000    0.000000    4.233416
Ne    0.000000    0.000000    0.000000
           2
 Time =    819.00000000000000     
Ne    0.000000    0.000000    4.233416
Ne    0.000000    0.000000    0.000000
           2
 Time =    820.00000000000000     
Ne    0.000000    0.000000    4.233416
Ne    0.000000    0.000000    0.000000
           2
 Time =    821.00000000000000     
Ne    0.000000    0.000000    4.233416
Ne    0.000000    0.000000    0.000000
           2
 Time =    822.00000000000000     
Ne    0.000000    0.000000    4.233416
Ne    0.000000    0.000000    0.000000
           2
 Time =    823.00000000000000     
Ne    0.000000    0.000000    4.233416
Ne    0.000000    0.000000    0.000000
           2
 Time =    824.00000000000000     
Ne    0.000000    0.000000    4.233416
Ne    0.000000    0.000000    0.000000
           2
 Time =    825.00000000000000     
Ne    0.000000    0.000000    4.233416
Ne    0.000000    0.000000    0.000000
           2
 Time =    826.00000000000000     
Ne    0.000000    0.000000    4.233416
Ne    0.000000    0.000000    0.000000
           2
 Time =    827.00000000000000     
Ne    0.000000    0.000000    4.233416
Ne    0.000000    0.000000    0.000000
           2
 Time =    828.00000000000000     
Ne    0.000000    0.000000    4.233416
Ne    0.000000    0.000000    0.000000
           2
 Time =    829.00000000000000     
Ne    0.000000    0.000000    4.233416
Ne    0.000000    0.000000    0.000000
           2
 Time =    830.00000000000000     
Ne    0.000000    0.000000    4.233416
Ne    0.000000    0.000000    0.000000
           2
 Time =    831.00000000000000     
Ne    0.000000    0.000000    4.233416
Ne    0.000000    0.000000    0.000000
           2
 Time =    832.00000000000000     
Ne    0.000000    0.000000    4.233416
Ne    0.000000    0.000000    0.000000
           2
 Time =    833.00000000000000     
Ne    0.000000    0.000000    4.233416
Ne    0.000000    0.000000    0.000000
           2
 Time =    834.00000000000000     
Ne    0.000000    0.000000    4.233416
Ne    0.000000    0.000000    0.000000
           2
 Time =    835.00000000000000     
Ne    0.000000    0.000000    4.233416
Ne    0.000000    0.000000    0.000000
           2
 Time =    836.00000000000000     
Ne    0.000000    0.000000    4.233416
Ne    0.000000    0.000000    0.000000
           2
 Time =    837.00000000000000     
Ne    0.000000    0.000000    4.233416
Ne    0.000000    0.000000    0.000000
           2
 Time =    838.00000000000000     
Ne    0.000000    0.000000    4.233416
Ne    0.000000    0.000000    0.000000
           2
 Time =    839.00000000000000     
Ne    0.000000    0.000000    4.233416
Ne    0.000000    0.000000    0.000000
           2
 Time =    840.00000000000000     
Ne    0.000000    0.000000    4.233416
Ne    0.000000    0.000000    0.000000
           2
 Time =    841.00000000000000     
Ne    0.000000    0.000000    4.233416
Ne    0.000000    0.000000    0.000000
           2
 Time =    842.00000000000000     
Ne    0.000000    0.000000    4.233416
Ne    0.000000    0.000000    0.000000
           2
 Time =    843.00000000000000     
Ne    0.000000    0.000000    4.233416
Ne    0.000000    0.000000    0.000000
           2
 Time =    844.00000000000000     
Ne    0.000000    0.000000    4.233416
Ne    0.000000    0.000000    0.000000
           2
 Time =    845.00000000000000     
Ne    0.000000    0.000000    4.233416
Ne    0.000000    0.000000    0.000000
           2
 Time =    846.00000000000000     
Ne    0.000000    0.000000    4.233416
Ne    0.000000    0.000000    0.000000
           2
 Time =    847.00000000000000     
Ne    0.000000    0.000000    4.233416
Ne    0.000000    0.000000    0.000000
           2
 Time =    848.00000000000000     
Ne    0.000000    0.000000    4.233416
Ne    0.000000    0.000000    0.000000
           2
 Time =    849.00000000000000     
Ne    0.000000    0.000000    4.233416
Ne    0.000000    0.000000    0.000000
           2
 Time =    850.00000000000000     
Ne    0.000000    0.000000    4.233416
Ne    0.000000    0.000000    0.000000
           2
 Time =    851.00000000000000     
Ne    0.000000    0.000000    4.233416
Ne    0.000000    0.000000    0.000000
           2
 Time =    852.00000000000000     
Ne    0.000000    0.000000    4.233416
Ne    0.000000    0.000000    0.000000
           2
 Time =    853.00000000000000     
Ne    0.000000    0.000000    4.233416
Ne    0.000000    0.000000    0.000000
           2
 Time =    854.00000000000000     
Ne    0.000000    0.000000    4.233416
Ne    0.000000    0.000000    0.000000
           2
 Time =    855.00000000000000     
Ne    0.000000    0.000000    4.233416
Ne    0.000000    0.000000    0.000000
           2
 Time =    856.00000000000000     
Ne    0.000000    0.000000    4.233416
Ne    0.000000    0.000000    0.000000
           2
 Time =    857.00000000000000     
Ne    0.000000    0.000000    4.233416
Ne    0.000000    0.000000    0.000000
           2
 Time =    858.00000000000000     
Ne    0.000000    0.000000    4.233416
Ne    0.000000    0.000000    0.000000
           2
 Time =    859.00000000000000     
Ne    0.000000    0.000000    4.233416
Ne    0.000000    0.000000    0.000000
           2
 Time =    860.00000000000000     
Ne    0.000000    0.000000    4.233416
Ne    0.000000    0.000000    0.000000
           2
 Time =    861.00000000000000     
Ne    0.000000    0.000000    4.233416
Ne    0.000000    0.000000    0.000000
           2
 Time =    862.00000000000000     
Ne    0.000000    0.000000    4.233416
Ne    0.000000    0.000000    0.000000
           2
 Time =    863.00000000000000     
Ne    0.000000    0.000000    4.233416
Ne    0.000000    0.000000    0.000000
           2
 Time =    864.00000000000000     
Ne    0.000000    0.000000    4.233416
Ne    0.000000    0.000000    0.000000
           2
 Time =    865.00000000000000     
Ne    0.000000    0.000000    4.233416
Ne    0.000000    0.000000    0.000000
           2
 Time =    866.00000000000000     
Ne    0.000000    0.000000    4.233416
Ne    0.000000    0.000000    0.000000
           2
 Time =    867.00000000000000     
Ne    0.000000    0.000000    4.233416
Ne    0.000000    0.000000    0.000000
           2
 Time =    868.00000000000000     
Ne    0.000000    0.000000    4.233416
Ne    0.000000    0.000000    0.000000
           2
 Time =    869.00000000000000     
Ne    0.000000    0.000000    4.233416
Ne    0.000000    0.000000    0.000000
           2
 Time =    870.00000000000000     
Ne    0.000000    0.000000    4.233416
Ne    0.000000    0.000000    0.000000
           2
 Time =    871.00000000000000     
Ne    0.000000    0.000000    4.233416
Ne    0.000000    0.000000    0.000000
           2
 Time =    872.00000000000000     
Ne    0.000000    0.000000    4.233416
Ne    0.000000    0.000000    0.000000
           2
 Time =    873.00000000000000     
Ne    0.000000    0.000000    4.233416
Ne    0.000000    0.000000    0.000000
           2
 Time =    874.00000000000000     
Ne    0.000000    0.000000    4.233416
Ne    0.000000    0.000000    0.000000
           2
 Time =    875.00000000000000     
Ne    0.000000    0.000000    4.233416
Ne    0.000000    0.000000    0.000000
           2
 Time =    876.00000000000000     
Ne    0.000000    0.000000    4.233416
Ne    0.000000    0.000000    0.000000
           2
 Time =    877.00000000000000     
Ne    0.000000    0.000000    4.233416
Ne    0.000000    0.000000    0.000000
           2
 Time =    878.00000000000000     
Ne    0.000000    0.000000    4.233416
Ne    0.000000    0.000000    0.000000
           2
 Time =    879.00000000000000     
Ne    0.000000    0.000000    4.233416
Ne    0.000000    0.000000    0.000000
           2
 Time =    880.00000000000000     
Ne    0.000000    0.000000    4.233416
Ne    0.000000    0.000000    0.000000
           2
 Time =    881.00000000000000     
Ne    0.000000    0.000000    4.233416
Ne    0.000000    0.000000    0.000000
           2
 Time =    882.00000000000000     
Ne    0.000000    0.000000    4.233416
Ne    0.000000    0.000000    0.000000
           2
 Time =    883.00000000000000     
Ne    0.000000    0.000000    4.233416
Ne    0.000000    0.000000    0.000000
           2
 Time =    884.00000000000000     
Ne    0.000000    0.000000    4.233416
Ne    0.000000    0.000000    0.000000
           2
 Time =    885.00000000000000     
Ne    0.000000    0.000000    4.233416
Ne    0.000000    0.000000    0.000000
           2
 Time =    886.00000000000000     
Ne    0.000000    0.000000    4.233416
Ne    0.000000    0.000000    0.000000
           2
 Time =    887.00000000000000     
Ne    0.000000    0.000000    4.233416
Ne    0.000000    0.000000    0.000000
           2
 Time =    888.00000000000000     
Ne    0.000000    0.000000    4.233416
Ne    0.000000    0.000000    0.000000
           2
 Time =    889.00000000000000     
Ne    0.000000    0.000000    4.233416
Ne    0.000000    0.000000    0.000000
           2
 Time =    890.00000000000000     
Ne    0.000000    0.000000    4.233416
Ne    0.000000    0.000000    0.000000
           2
 Time =    891.00000000000000     
Ne    0.000000    0.000000    4.233416
Ne    0.000000    0.000000    0.000000
           2
 Time =    892.00000000000000     
Ne    0.000000    0.000000    4.233416
Ne    0.000000    0.000000    0.000000
           2
 Time =    893.00000000000000     
Ne    0.000000    0.000000    4.233416
Ne    0.000000    0.000000    0.000000
           2
 Time =    894.00000000000000     
Ne    0.000000    0.000000    4.233416
Ne    0.000000    0.000000    0.000000
           2
 Time =    895.00000000000000     
Ne    0.000000    0.000000    4.233416
Ne    0.000000    0.000000    0.000000
           2
 Time =    896.00000000000000     
Ne    0.000000    0.000000    4.233416
Ne    0.000000    0.000000    0.000000
           2
 Time =    897.00000000000000     
Ne    0.000000    0.000000    4.233416
Ne    0.000000    0.000000    0.000000
           2
 Time =    898.00000000000000     
Ne    0.000000    0.000000    4.233416
Ne    0.000000    0.000000    0.000000
           2
 Time =    899.00000000000000     
Ne    0.000000    0.000000    4.233416
Ne    0.000000    0.000000    0.000000
           2
 Time =    900.00000000000000     
Ne    0.000000    0.000000    4.233416
Ne    0.000000    0.000000    0.000000
           2
 Time =    901.00000000000000     
Ne    0.000000    0.000000    4.233416
Ne    0.000000    0.000000    0.000000
           2
 Time =    902.00000000000000     
Ne    0.000000    0.000000    4.233416
Ne    0.000000    0.000000    0.000000
           2
 Time =    903.00000000000000     
Ne    0.000000    0.000000    4.233416
Ne    0.000000    0.000000    0.000000
           2
 Time =    904.00000000000000     
Ne    0.000000    0.000000    4.233416
Ne    0.000000    0.000000    0.000000
           2
 Time =    905.00000000000000     
Ne    0.000000    0.000000    4.233416
Ne    0.000000    0.000000    0.000000
           2
 Time =    906.00000000000000     
Ne    0.000000    0.000000    4.233416
Ne    0.000000    0.000000    0.000000
           2
 Time =    907.00000000000000     
Ne    0.000000    0.000000    4.233416
Ne    0.000000    0.000000    0.000000
           2
 Time =    908.00000000000000     
Ne    0.000000    0.000000    4.233416
Ne    0.000000    0.000000    0.000000
           2
 Time =    909.00000000000000     
Ne    0.000000    0.000000    4.233416
Ne    0.000000    0.000000    0.000000
           2
 Time =    910.00000000000000     
Ne    0.000000    0.000000    4.233416
Ne    0.000000    0.000000    0.000000
           2
 Time =    911.00000000000000     
Ne    0.000000    0.000000    4.233416
Ne    0.000000    0.000000    0.000000
           2
 Time =    912.00000000000000     
Ne    0.000000    0.000000    4.233416
Ne    0.000000    0.000000    0.000000
           2
 Time =    913.00000000000000     
Ne    0.000000    0.000000    4.233416
Ne    0.000000    0.000000    0.000000
           2
 Time =    914.00000000000000     
Ne    0.000000    0.000000    4.233416
Ne    0.000000    0.000000    0.000000
           2
 Time =    915.00000000000000     
Ne    0.000000    0.000000    4.233416
Ne    0.000000    0.000000    0.000000
           2
 Time =    916.00000000000000     
Ne    0.000000    0.000000    4.233416
Ne    0.000000    0.000000    0.000000
           2
 Time =    917.00000000000000     
Ne    0.000000    0.000000    4.233416
Ne    0.000000    0.000000    0.000000
           2
 Time =    918.00000000000000     
Ne    0.000000    0.000000    4.233416
Ne    0.000000    0.000000    0.000000
           2
 Time =    919.00000000000000     
Ne    0.000000    0.000000    4.233416
Ne    0.000000    0.000000    0.000000
           2
 Time =    920.00000000000000     
Ne    0.000000    0.000000    4.233416
Ne    0.000000    0.000000    0.000000
           2
 Time =    921.00000000000000     
Ne    0.000000    0.000000    4.233416
Ne    0.000000    0.000000    0.000000
           2
 Time =    922.00000000000000     
Ne    0.000000    0.000000    4.233416
Ne    0.000000    0.000000    0.000000
           2
 Time =    923.00000000000000     
Ne    0.000000    0.000000    4.233416
Ne    0.000000    0.000000    0.000000
           2
 Time =    924.00000000000000     
Ne    0.000000    0.000000    4.233416
Ne    0.000000    0.000000    0.000000
           2
 Time =    925.00000000000000     
Ne    0.000000    0.000000    4.233416
Ne    0.000000    0.000000    0.000000
           2
 Time =    926.00000000000000     
Ne    0.000000    0.000000    4.233416
Ne    0.000000    0.000000    0.000000
           2
 Time =    927.00000000000000     
Ne    0.000000    0.000000    4.233416
Ne    0.000000    0.000000    0.000000
           2
 Time =    928.00000000000000     
Ne    0.000000    0.000000    4.233416
Ne    0.000000    0.000000    0.000000
           2
 Time =    929.00000000000000     
Ne    0.000000    0.000000    4.233416
Ne    0.000000    0.000000    0.000000
           2
 Time =    930.00000000000000     
Ne    0.000000    0.000000    4.233416
Ne    0.000000    0.000000    0.000000
           2
 Time =    931.00000000000000     
Ne    0.000000    0.000000    4.233416
Ne    0.000000    0.000000    0.000000
           2
 Time =    932.00000000000000     
Ne    0.000000    0.000000    4.233416
Ne    0.000000    0.000000    0.000000
           2
 Time =    933.00000000000000     
Ne    0.000000    0.000000    4.233416
Ne    0.000000    0.000000    0.000000
           2
 Time =    934.00000000000000     
Ne    0.000000    0.000000    4.233416
Ne    0.000000    0.000000    0.000000
           2
 Time =    935.00000000000000     
Ne    0.000000    0.000000    4.233416
Ne    0.000000    0.000000    0.000000
           2
 Time =    936.00000000000000     
Ne    0.000000    0.000000    4.233416
Ne    0.000000    0.000000    0.000000
           2
 Time =    937.00000000000000     
Ne    0.000000    0.000000    4.233416
Ne    0.000000    0.000000    0.000000
           2
 Time =    938.00000000000000     
Ne    0.000000    0.000000    4.233416
Ne    0.000000    0.000000    0.000000
           2
 Time =    939.00000000000000     
Ne    0.000000    0.000000    4.233416
Ne    0.000000    0.000000    0.000000
           2
 Time =    940.00000000000000     
Ne    0.000000    0.000000    4.233416
Ne    0.000000    0.000000    0.000000
           2
 Time =    941.00000000000000     
Ne    0.000000    0.000000    4.233416
Ne    0.000000    0.000000    0.000000
           2
 Time =    942.00000000000000     
Ne    0.000000    0.000000    4.233416
Ne    0.000000    0.000000    0.000000
           2
 Time =    943.00000000000000     
Ne    0.000000    0.000000    4.233416
Ne    0.000000    0.000000    0.000000
           2
 Time =    944.00000000000000     
Ne    0.000000    0.000000    4.233416
Ne    0.000000    0.000000    0.000000
           2
 Time =    945.00000000000000     
Ne    0.000000    0.000000    4.233416
Ne    0.000000    0.000000    0.000000
           2
 Time =    946.00000000000000     
Ne    0.000000    0.000000    4.233416
Ne    0.000000    0.000000    0.000000
           2
 Time =    947.00000000000000     
Ne    0.000000    0.000000    4.233416
Ne    0.000000    0.000000    0.000000
           2
 Time =    948.00000000000000     
Ne    0.000000    0.000000    4.233416
Ne    0.000000    0.000000    0.000000
           2
 Time =    949.00000000000000     
Ne    0.000000    0.000000    4.233416
Ne    0.000000    0.000000    0.000000
           2
 Time =    950.00000000000000     
Ne    0.000000    0.000000    4.233416
Ne    0.000000    0.000000    0.000000
           2
 Time =    951.00000000000000     
Ne    0.000000    0.000000    4.233416
Ne    0.000000    0.000000    0.000000
           2
 Time =    952.00000000000000     
Ne    0.000000    0.000000    4.233416
Ne    0.000000    0.000000    0.000000
           2
 Time =    953.00000000000000     
Ne    0.000000    0.000000    4.233416
Ne    0.000000    0.000000    0.000000
           2
 Time =    954.00000000000000     
Ne    0.000000    0.000000    4.233416
Ne    0.000000    0.000000    0.000000
           2
 Time =    955.00000000000000     
Ne    0.000000    0.000000    4.233416
Ne    0.000000    0.000000    0.000000
           2
 Time =    956.00000000000000     
Ne    0.000000    0.000000    4.233416
Ne    0.000000    0.000000    0.000000
           2
 Time =    957.00000000000000     
Ne    0.000000    0.000000    4.233416
Ne    0.000000    0.000000    0.000000
           2
 Time =    958.00000000000000     
Ne    0.000000    0.000000    4.233416
Ne    0.000000    0.000000    0.000000
           2
 Time =    959.00000000000000     
Ne    0.000000    0.000000    4.233416
Ne    0.000000    0.000000    0.000000
           2
 Time =    960.00000000000000     
Ne    0.000000    0.000000    4.233416
Ne    0.000000    0.000000    0.000000
           2
 Time =    961.00000000000000     
Ne    0.000000    0.000000    4.233416
Ne    0.000000    0.000000    0.000000
           2
 Time =    962.00000000000000     
Ne    0.000000    0.000000    4.233416
Ne    0.000000    0.000000    0.000000
           2
 Time =    963.00000000000000     
Ne    0.000000    0.000000    4.233416
Ne    0.000000    0.000000    0.000000
           2
 Time =    964.00000000000000     
Ne    0.000000    0.000000    4.233416
Ne    0.000000    0.000000    0.000000
           2
 Time =    965.00000000000000     
Ne    0.000000    0.000000    4.233416
Ne    0.000000    0.000000    0.000000
           2
 Time =    966.00000000000000     
Ne    0.000000    0.000000    4.233416
Ne    0.000000    0.000000    0.000000
           2
 Time =    967.00000000000000     
Ne    0.000000    0.000000    4.233416
Ne    0.000000    0.000000    0.000000
           2
 Time =    968.00000000000000     
Ne    0.000000    0.000000    4.233416
Ne    0.000000    0.000000    0.000000
           2
 Time =    969.00000000000000     
Ne    0.000000    0.000000    4.233416
Ne    0.000000    0.000000    0.000000
           2
 Time =    970.00000000000000     
Ne    0.000000    0.000000    4.233416
Ne    0.000000    0.000000    0.000000
           2
 Time =    971.00000000000000     
Ne    0.000000    0.000000    4.233416
Ne    0.000000    0.000000    0.000000
           2
 Time =    972.00000000000000     
Ne    0.000000    0.000000    4.233416
Ne    0.000000    0.000000    0.000000
           2
 Time =    973.00000000000000     
Ne    0.000000    0.000000    4.233416
Ne    0.000000    0.000000    0.000000
           2
 Time =    974.00000000000000     
Ne    0.000000    0.000000    4.233416
Ne    0.000000    0.000000    0.000000
           2
 Time =    975.00000000000000     
Ne    0.000000    0.000000    4.233416
Ne    0.000000    0.000000    0.000000
           2
 Time =    976.00000000000000     
Ne    0.000000    0.000000    4.233416
Ne    0.000000    0.000000    0.000000
           2
 Time =    977.00000000000000     
Ne    0.000000    0.000000    4.233416
Ne    0.000000    0.000000    0.000000
           2
 Time =    978.00000000000000     
Ne    0.000000    0.000000    4.233416
Ne    0.000000    0.000000    0.000000
           2
 Time =    979.00000000000000     
Ne    0.000000    0.000000    4.233416
Ne    0.000000    0.000000    0.000000
           2
 Time =    980.00000000000000     
Ne    0.000000    0.000000    4.233416
Ne    0.000000    0.000000    0.000000
           2
 Time =    981.00000000000000     
Ne    0.000000    0.000000    4.233416
Ne    0.000000    0.000000    0.000000
           2
 Time =    982.00000000000000     
Ne    0.000000    0.000000    4.233416
Ne    0.000000    0.000000    0.000000
           2
 Time =    983.00000000000000     
Ne    0.000000    0.000000    4.233416
Ne    0.000000    0.000000    0.000000
           2
 Time =    984.00000000000000     
Ne    0.000000    0.000000    4.233416
Ne    0.000000    0.000000    0.000000
           2
 Time =    985.00000000000000     
Ne    0.000000    0.000000    4.233416
Ne    0.000000    0.000000    0.000000
           2
 Time =    986.00000000000000     
Ne    0.000000    0.000000    4.233416
Ne    0.000000    0.000000    0.000000
           2
 Time =    987.00000000000000     
Ne    0.000000    0.000000    4.233416
Ne    0.000000    0.000000    0.000000
           2
 Time =    988.00000000000000     
Ne    0.000000    0.000000    4.233416
Ne    0.000000    0.000000    0.000000
           2
 Time =    989.00000000000000     
Ne    0.000000    0.000000    4.233416
Ne    0.000000    0.000000    0.000000
           2
 Time =    990.00000000000000     
Ne    0.000000    0.000000    4.233416
Ne    0.000000    0.000000    0.000000
           2
 Time =    991.00000000000000     
Ne    0.000000    0.000000    4.233416
Ne    0.000000    0.000000    0.000000
           2
 Time =    992.00000000000000     
Ne    0.000000    0.000000    4.233416
Ne    0.000000    0.000000    0.000000
           2
 Time =    993.00000000000000     
Ne    0.000000    0.000000    4.233416
Ne    0.000000    0.000000    0.000000
           2
 Time =    994.00000000000000     
Ne    0.000000    0.000000    4.233416
Ne    0.000000    0.000000    0.000000
           2
 Time =    995.00000000000000     
Ne    0.000000    0.000000    4.233416
Ne    0.000000    0.000000    0.000000
           2
 Time =    996.00000000000000     
Ne    0.000000    0.000000    4.233416
Ne    0.000000    0.000000    0.000000
           2
 Time =    997.00000000000000     
Ne    0.000000    0.000000    4.233416
Ne    0.000000    0.000000    0.000000
           2
 Time =    998.00000000000000     
Ne    0.000000    0.000000    4.233416
Ne    0.000000    0.000000    0.000000
           2
 Time =    999.00000000000000     
Ne    0.000000    0.000000    4.233416
Ne    0.000000    0.000000    0.000000
           2
 Time =    1000.0000000000000     
Ne    0.000000    0.000000    4.233416
Ne    0.000000    0.000000    0.000000
           2
 Time =    1001.0000000000000     
Ne    0.000000    0.000000    4.233416
Ne    0.000000    0.000000    0.000000
           2
 Time =    1002.0000000000000     
Ne    0.000000    0.000000    4.233416
Ne    0.000000    0.000000    0.000000
           2
 Time =    1003.0000000000000     
Ne    0.000000    0.000000    4.233416
Ne    0.000000    0.000000    0.000000
           2
 Time =    1004.0000000000000     
Ne    0.000000    0.000000    4.233416
Ne    0.000000    0.000000    0.000000
           2
 Time =    1005.0000000000000     
Ne    0.000000    0.000000    4.233416
Ne    0.000000    0.000000    0.000000
           2
 Time =    1006.0000000000000     
Ne    0.000000    0.000000    4.233416
Ne    0.000000    0.000000    0.000000
           2
 Time =    1007.0000000000000     
Ne    0.000000    0.000000    4.233416
Ne    0.000000    0.000000    0.000000
           2
 Time =    1008.0000000000000     
Ne    0.000000    0.000000    4.233416
Ne    0.000000    0.000000    0.000000
           2
 Time =    1009.0000000000000     
Ne    0.000000    0.000000    4.233416
Ne    0.000000    0.000000    0.000000
           2
 Time =    1010.0000000000000     
Ne    0.000000    0.000000    4.233416
Ne    0.000000    0.000000    0.000000
           2
 Time =    1011.0000000000000     
Ne    0.000000    0.000000    4.233416
Ne    0.000000    0.000000    0.000000
           2
 Time =    1012.0000000000000     
Ne    0.000000    0.000000    4.233416
Ne    0.000000    0.000000    0.000000
           2
 Time =    1013.0000000000000     
Ne    0.000000    0.000000    4.233416
Ne    0.000000    0.000000    0.000000
           2
 Time =    1014.0000000000000     
Ne    0.000000    0.000000    4.233416
Ne    0.000000    0.000000    0.000000
           2
 Time =    1015.0000000000000     
Ne    0.000000    0.000000    4.233416
Ne    0.000000    0.000000    0.000000
           2
 Time =    1016.0000000000000     
Ne    0.000000    0.000000    4.233416
Ne    0.000000    0.000000    0.000000
           2
 Time =    1017.0000000000000     
Ne    0.000000    0.000000    4.233416
Ne    0.000000    0.000000    0.000000
           2
 Time =    1018.0000000000000     
Ne    0.000000    0.000000    4.233416
Ne    0.000000    0.000000    0.000000
           2
 Time =    1019.0000000000000     
Ne    0.000000    0.000000    4.233416
Ne    0.000000    0.000000    0.000000
           2
 Time =    1020.0000000000000     
Ne    0.000000    0.000000    4.233416
Ne    0.000000    0.000000    0.000000
           2
 Time =    1021.0000000000000     
Ne    0.000000    0.000000    4.233416
Ne    0.000000    0.000000    0.000000
           2
 Time =    1022.0000000000000     
Ne    0.000000    0.000000    4.233416
Ne    0.000000    0.000000    0.000000
           2
 Time =    1023.0000000000000     
Ne    0.000000    0.000000    4.233416
Ne    0.000000    0.000000    0.000000
           2
 Time =    1024.0000000000000     
Ne    0.000000    0.000000    4.233416
Ne    0.000000    0.000000    0.000000
           2
 Time =    1025.0000000000000     
Ne    0.000000    0.000000    4.233416
Ne    0.000000    0.000000    0.000000
           2
 Time =    1026.0000000000000     
Ne    0.000000    0.000000    4.233416
Ne    0.000000    0.000000    0.000000
           2
 Time =    1027.0000000000000     
Ne    0.000000    0.000000    4.233416
Ne    0.000000    0.000000    0.000000
           2
 Time =    1028.0000000000000     
Ne    0.000000    0.000000    4.233416
Ne    0.000000    0.000000    0.000000
           2
 Time =    1029.0000000000000     
Ne    0.000000    0.000000    4.233416
Ne    0.000000    0.000000    0.000000
           2
 Time =    1030.0000000000000     
Ne    0.000000    0.000000    4.233416
Ne    0.000000    0.000000    0.000000
           2
 Time =    1031.0000000000000     
Ne    0.000000    0.000000    4.233416
Ne    0.000000    0.000000    0.000000
           2
 Time =    1032.0000000000000     
Ne    0.000000    0.000000    4.233416
Ne    0.000000    0.000000    0.000000
           2
 Time =    1033.0000000000000     
Ne    0.000000    0.000000    4.233416
Ne    0.000000    0.000000    0.000000
           2
 Time =    1034.0000000000000     
Ne    0.000000    0.000000    4.233416
Ne    0.000000    0.000000    0.000000
           2
 Time =    1035.0000000000000     
Ne    0.000000    0.000000    4.233416
Ne    0.000000    0.000000    0.000000
           2
 Time =    1036.0000000000000     
Ne    0.000000    0.000000    4.233416
Ne    0.000000    0.000000    0.000000
           2
 Time =    1037.0000000000000     
Ne    0.000000    0.000000    4.233416
Ne    0.000000    0.000000    0.000000
           2
 Time =    1038.0000000000000     
Ne    0.000000    0.000000    4.233416
Ne    0.000000    0.000000    0.000000
           2
 Time =    1039.0000000000000     
Ne    0.000000    0.000000    4.233416
Ne    0.000000    0.000000    0.000000
           2
 Time =    1040.0000000000000     
Ne    0.000000    0.000000    4.233416
Ne    0.000000    0.000000    0.000000
           2
 Time =    1041.0000000000000     
Ne    0.000000    0.000000    4.233416
Ne    0.000000    0.000000    0.000000
           2
 Time =    1042.0000000000000     
Ne    0.000000    0.000000    4.233416
Ne    0.000000    0.000000    0.000000
           2
 Time =    1043.0000000000000     
Ne    0.000000    0.000000    4.233416
Ne    0.000000    0.000000    0.000000
           2
 Time =    1044.0000000000000     
Ne    0.000000    0.000000    4.233416
Ne    0.000000    0.000000    0.000000
           2
 Time =    1045.0000000000000     
Ne    0.000000    0.000000    4.233416
Ne    0.000000    0.000000    0.000000
           2
 Time =    1046.0000000000000     
Ne    0.000000    0.000000    4.233416
Ne    0.000000    0.000000    0.000000
           2
 Time =    1047.0000000000000     
Ne    0.000000    0.000000    4.233416
Ne    0.000000    0.000000    0.000000
           2
 Time =    1048.0000000000000     
Ne    0.000000    0.000000    4.233416
Ne    0.000000    0.000000    0.000000
           2
 Time =    1049.0000000000000     
Ne    0.000000    0.000000    4.233416
Ne    0.000000    0.000000    0.000000
           2
 Time =    1050.0000000000000     
Ne    0.000000    0.000000    4.233416
Ne    0.000000    0.000000    0.000000
           2
 Time =    1051.0000000000000     
Ne    0.000000    0.000000    4.233416
Ne    0.000000    0.000000    0.000000
           2
 Time =    1052.0000000000000     
Ne    0.000000    0.000000    4.233416
Ne    0.000000    0.000000    0.000000
           2
 Time =    1053.0000000000000     
Ne    0.000000    0.000000    4.233416
Ne    0.000000    0.000000    0.000000
           2
 Time =    1054.0000000000000     
Ne    0.000000    0.000000    4.233416
Ne    0.000000    0.000000    0.000000
           2
 Time =    1055.0000000000000     
Ne    0.000000    0.000000    4.233416
Ne    0.000000    0.000000    0.000000
           2
 Time =    1056.0000000000000     
Ne    0.000000    0.000000    4.233416
Ne    0.000000    0.000000    0.000000
           2
 Time =    1057.0000000000000     
Ne    0.000000    0.000000    4.233416
Ne    0.000000    0.000000    0.000000
           2
 Time =    1058.0000000000000     
Ne    0.000000    0.000000    4.233416
Ne    0.000000    0.000000    0.000000
           2
 Time =    1059.0000000000000     
Ne    0.000000    0.000000    4.233416
Ne    0.000000    0.000000    0.000000
           2
 Time =    1060.0000000000000     
Ne    0.000000    0.000000    4.233416
Ne    0.000000    0.000000    0.000000
           2
 Time =    1061.0000000000000     
Ne    0.000000    0.000000    4.233416
Ne    0.000000    0.000000    0.000000
           2
 Time =    1062.0000000000000     
Ne    0.000000    0.000000    4.233416
Ne    0.000000    0.000000    0.000000
           2
 Time =    1063.0000000000000     
Ne    0.000000    0.000000    4.233416
Ne    0.000000    0.000000    0.000000
           2
 Time =    1064.0000000000000     
Ne    0.000000    0.000000    4.233416
Ne    0.000000    0.000000    0.000000
           2
 Time =    1065.0000000000000     
Ne    0.000000    0.000000    4.233416
Ne    0.000000    0.000000    0.000000
           2
 Time =    1066.0000000000000     
Ne    0.000000    0.000000    4.233416
Ne    0.000000    0.000000    0.000000
           2
 Time =    1067.0000000000000     
Ne    0.000000    0.000000    4.233416
Ne    0.000000    0.000000    0.000000
           2
 Time =    1068.0000000000000     
Ne    0.000000    0.000000    4.233416
Ne    0.000000    0.000000    0.000000
           2
 Time =    1069.0000000000000     
Ne    0.000000    0.000000    4.233416
Ne    0.000000    0.000000    0.000000
           2
 Time =    1070.0000000000000     
Ne    0.000000    0.000000    4.233416
Ne    0.000000    0.000000    0.000000
           2
 Time =    1071.0000000000000     
Ne    0.000000    0.000000    4.233416
Ne    0.000000    0.000000    0.000000
           2
 Time =    1072.0000000000000     
Ne    0.000000    0.000000    4.233416
Ne    0.000000    0.000000    0.000000
           2
 Time =    1073.0000000000000     
Ne    0.000000    0.000000    4.233416
Ne    0.000000    0.000000    0.000000
           2
 Time =    1074.0000000000000     
Ne    0.000000    0.000000    4.233416
Ne    0.000000    0.000000    0.000000
           2
 Time =    1075.0000000000000     
Ne    0.000000    0.000000    4.233416
Ne    0.000000    0.000000    0.000000
           2
 Time =    1076.0000000000000     
Ne    0.000000    0.000000    4.233416
Ne    0.000000    0.000000    0.000000
           2
 Time =    1077.0000000000000     
Ne    0.000000    0.000000    4.233416
Ne    0.000000    0.000000    0.000000
           2
 Time =    1078.0000000000000     
Ne    0.000000    0.000000    4.233416
Ne    0.000000    0.000000    0.000000
           2
 Time =    1079.0000000000000     
Ne    0.000000    0.000000    4.233416
Ne    0.000000    0.000000    0.000000
           2
 Time =    1080.0000000000000     
Ne    0.000000    0.000000    4.233416
Ne    0.000000    0.000000    0.000000
           2
 Time =    1081.0000000000000     
Ne    0.000000    0.000000    4.233416
Ne    0.000000    0.000000    0.000000
           2
 Time =    1082.0000000000000     
Ne    0.000000    0.000000    4.233416
Ne    0.000000    0.000000    0.000000
           2
 Time =    1083.0000000000000     
Ne    0.000000    0.000000    4.233416
Ne    0.000000    0.000000    0.000000
           2
 Time =    1084.0000000000000     
Ne    0.000000    0.000000    4.233416
Ne    0.000000    0.000000    0.000000
           2
 Time =    1085.0000000000000     
Ne    0.000000    0.000000    4.233416
Ne    0.000000    0.000000    0.000000
           2
 Time =    1086.0000000000000     
Ne    0.000000    0.000000    4.233416
Ne    0.000000    0.000000    0.000000
           2
 Time =    1087.0000000000000     
Ne    0.000000    0.000000    4.233416
Ne    0.000000    0.000000    0.000000
           2
 Time =    1088.0000000000000     
Ne    0.000000    0.000000    4.233416
Ne    0.000000    0.000000    0.000000
           2
 Time =    1089.0000000000000     
Ne    0.000000    0.000000    4.233416
Ne    0.000000    0.000000    0.000000
           2
 Time =    1090.0000000000000     
Ne    0.000000    0.000000    4.233416
Ne    0.000000    0.000000    0.000000
           2
 Time =    1091.0000000000000     
Ne    0.000000    0.000000    4.233416
Ne    0.000000    0.000000    0.000000
           2
 Time =    1092.0000000000000     
Ne    0.000000    0.000000    4.233416
Ne    0.000000    0.000000    0.000000
           2
 Time =    1093.0000000000000     
Ne    0.000000    0.000000    4.233416
Ne    0.000000    0.000000    0.000000
           2
 Time =    1094.0000000000000     
Ne    0.000000    0.000000    4.233416
Ne    0.000000    0.000000    0.000000
           2
 Time =    1095.0000000000000     
Ne    0.000000    0.000000    4.233416
Ne    0.000000    0.000000    0.000000
           2
 Time =    1096.0000000000000     
Ne    0.000000    0.000000    4.233416
Ne    0.000000    0.000000    0.000000
           2
 Time =    1097.0000000000000     
Ne    0.000000    0.000000    4.233416
Ne    0.000000    0.000000    0.000000
           2
 Time =    1098.0000000000000     
Ne    0.000000    0.000000    4.233416
Ne    0.000000    0.000000    0.000000
           2
 Time =    1099.0000000000000     
Ne    0.000000    0.000000    4.233416
Ne    0.000000    0.000000    0.000000
           2
 Time =    1100.0000000000000     
Ne    0.000000    0.000000    4.233416
Ne    0.000000    0.000000    0.000000
           2
 Time =    1101.0000000000000     
Ne    0.000000    0.000000    4.233416
Ne    0.000000    0.000000    0.000000
           2
 Time =    1102.0000000000000     
Ne    0.000000    0.000000    4.233416
Ne    0.000000    0.000000    0.000000
           2
 Time =    1103.0000000000000     
Ne    0.000000    0.000000    4.233416
Ne    0.000000    0.000000    0.000000
           2
 Time =    1104.0000000000000     
Ne    0.000000    0.000000    4.233416
Ne    0.000000    0.000000    0.000000
           2
 Time =    1105.0000000000000     
Ne    0.000000    0.000000    4.233416
Ne    0.000000    0.000000    0.000000
           2
 Time =    1106.0000000000000     
Ne    0.000000    0.000000    4.233416
Ne    0.000000    0.000000    0.000000
           2
 Time =    1107.0000000000000     
Ne    0.000000    0.000000    4.233416
Ne    0.000000    0.000000    0.000000
           2
 Time =    1108.0000000000000     
Ne    0.000000    0.000000    4.233416
Ne    0.000000    0.000000    0.000000
           2
 Time =    1109.0000000000000     
Ne    0.000000    0.000000    4.233416
Ne    0.000000    0.000000    0.000000
           2
 Time =    1110.0000000000000     
Ne    0.000000    0.000000    4.233416
Ne    0.000000    0.000000    0.000000
           2
 Time =    1111.0000000000000     
Ne    0.000000    0.000000    4.233416
Ne    0.000000    0.000000    0.000000
           2
 Time =    1112.0000000000000     
Ne    0.000000    0.000000    4.233416
Ne    0.000000    0.000000    0.000000
           2
 Time =    1113.0000000000000     
Ne    0.000000    0.000000    4.233416
Ne    0.000000    0.000000    0.000000
           2
 Time =    1114.0000000000000     
Ne    0.000000    0.000000    4.233416
Ne    0.000000    0.000000    0.000000
           2
 Time =    1115.0000000000000     
Ne    0.000000    0.000000    4.233416
Ne    0.000000    0.000000    0.000000
           2
 Time =    1116.0000000000000     
Ne    0.000000    0.000000    4.233416
Ne    0.000000    0.000000    0.000000
           2
 Time =    1117.0000000000000     
Ne    0.000000    0.000000    4.233416
Ne    0.000000    0.000000    0.000000
           2
 Time =    1118.0000000000000     
Ne    0.000000    0.000000    4.233416
Ne    0.000000    0.000000    0.000000
           2
 Time =    1119.0000000000000     
Ne    0.000000    0.000000    4.233416
Ne    0.000000    0.000000    0.000000
           2
 Time =    1120.0000000000000     
Ne    0.000000    0.000000    4.233416
Ne    0.000000    0.000000    0.000000
           2
 Time =    1121.0000000000000     
Ne    0.000000    0.000000    4.233416
Ne    0.000000    0.000000    0.000000
           2
 Time =    1122.0000000000000     
Ne    0.000000    0.000000    4.233416
Ne    0.000000    0.000000    0.000000
           2
 Time =    1123.0000000000000     
Ne    0.000000    0.000000    4.233416
Ne    0.000000    0.000000    0.000000
           2
 Time =    1124.0000000000000     
Ne    0.000000    0.000000    4.233416
Ne    0.000000    0.000000    0.000000
           2
 Time =    1125.0000000000000     
Ne    0.000000    0.000000    4.233416
Ne    0.000000    0.000000    0.000000
           2
 Time =    1126.0000000000000     
Ne    0.000000    0.000000    4.233416
Ne    0.000000    0.000000    0.000000
           2
 Time =    1127.0000000000000     
Ne    0.000000    0.000000    4.233416
Ne    0.000000    0.000000    0.000000
           2
 Time =    1128.0000000000000     
Ne    0.000000    0.000000    4.233416
Ne    0.000000    0.000000    0.000000
           2
 Time =    1129.0000000000000     
Ne    0.000000    0.000000    4.233416
Ne    0.000000    0.000000    0.000000
           2
 Time =    1130.0000000000000     
Ne    0.000000    0.000000    4.233416
Ne    0.000000    0.000000    0.000000
           2
 Time =    1131.0000000000000     
Ne    0.000000    0.000000    4.233416
Ne    0.000000    0.000000    0.000000
           2
 Time =    1132.0000000000000     
Ne    0.000000    0.000000    4.233416
Ne    0.000000    0.000000    0.000000
           2
 Time =    1133.0000000000000     
Ne    0.000000    0.000000    4.233416
Ne    0.000000    0.000000    0.000000
           2
 Time =    1134.0000000000000     
Ne    0.000000    0.000000    4.233416
Ne    0.000000    0.000000    0.000000
           2
 Time =    1135.0000000000000     
Ne    0.000000    0.000000    4.233416
Ne    0.000000    0.000000    0.000000
           2
 Time =    1136.0000000000000     
Ne    0.000000    0.000000    4.233416
Ne    0.000000    0.000000    0.000000
           2
 Time =    1137.0000000000000     
Ne    0.000000    0.000000    4.233416
Ne    0.000000    0.000000    0.000000
           2
 Time =    1138.0000000000000     
Ne    0.000000    0.000000    4.233416
Ne    0.000000    0.000000    0.000000
           2
 Time =    1139.0000000000000     
Ne    0.000000    0.000000    4.233416
Ne    0.000000    0.000000    0.000000
           2
 Time =    1140.0000000000000     
Ne    0.000000    0.000000    4.233416
Ne    0.000000    0.000000    0.000000
           2
 Time =    1141.0000000000000     
Ne    0.000000    0.000000    4.233416
Ne    0.000000    0.000000    0.000000
           2
 Time =    1142.0000000000000     
Ne    0.000000    0.000000    4.233416
Ne    0.000000    0.000000    0.000000
           2
 Time =    1143.0000000000000     
Ne    0.000000    0.000000    4.233416
Ne    0.000000    0.000000    0.000000
           2
 Time =    1144.0000000000000     
Ne    0.000000    0.000000    4.233416
Ne    0.000000    0.000000    0.000000
           2
 Time =    1145.0000000000000     
Ne    0.000000    0.000000    4.233416
Ne    0.000000    0.000000    0.000000
           2
 Time =    1146.0000000000000     
Ne    0.000000    0.000000    4.233416
Ne    0.000000    0.000000    0.000000
           2
 Time =    1147.0000000000000     
Ne    0.000000    0.000000    4.233416
Ne    0.000000    0.000000    0.000000
           2
 Time =    1148.0000000000000     
Ne    0.000000    0.000000    4.233416
Ne    0.000000    0.000000    0.000000
           2
 Time =    1149.0000000000000     
Ne    0.000000    0.000000    4.233416
Ne    0.000000    0.000000    0.000000
           2
 Time =    1150.0000000000000     
Ne    0.000000    0.000000    4.233416
Ne    0.000000    0.000000    0.000000
           2
 Time =    1151.0000000000000     
Ne    0.000000    0.000000    4.233416
Ne    0.000000    0.000000    0.000000
           2
 Time =    1152.0000000000000     
Ne    0.000000    0.000000    4.233416
Ne    0.000000    0.000000    0.000000
           2
 Time =    1153.0000000000000     
Ne    0.000000    0.000000    4.233416
Ne    0.000000    0.000000    0.000000
           2
 Time =    1154.0000000000000     
Ne    0.000000    0.000000    4.233416
Ne    0.000000    0.000000    0.000000
           2
 Time =    1155.0000000000000     
Ne    0.000000    0.000000    4.233416
Ne    0.000000    0.000000    0.000000
           2
 Time =    1156.0000000000000     
Ne    0.000000    0.000000    4.233416
Ne    0.000000    0.000000    0.000000
           2
 Time =    1157.0000000000000     
Ne    0.000000    0.000000    4.233416
Ne    0.000000    0.000000    0.000000
           2
 Time =    1158.0000000000000     
Ne    0.000000    0.000000    4.233416
Ne    0.000000    0.000000    0.000000
           2
 Time =    1159.0000000000000     
Ne    0.000000    0.000000    4.233416
Ne    0.000000    0.000000    0.000000
           2
 Time =    1160.0000000000000     
Ne    0.000000    0.000000    4.233416
Ne    0.000000    0.000000    0.000000
           2
 Time =    1161.0000000000000     
Ne    0.000000    0.000000    4.233416
Ne    0.000000    0.000000    0.000000
           2
 Time =    1162.0000000000000     
Ne    0.000000    0.000000    4.233416
Ne    0.000000    0.000000    0.000000
           2
 Time =    1163.0000000000000     
Ne    0.000000    0.000000    4.233416
Ne    0.000000    0.000000    0.000000
           2
 Time =    1164.0000000000000     
Ne    0.000000    0.000000    4.233416
Ne    0.000000    0.000000    0.000000
           2
 Time =    1165.0000000000000     
Ne    0.000000    0.000000    4.233416
Ne    0.000000    0.000000    0.000000
           2
 Time =    1166.0000000000000     
Ne    0.000000    0.000000    4.233416
Ne    0.000000    0.000000    0.000000
           2
 Time =    1167.0000000000000     
Ne    0.000000    0.000000    4.233416
Ne    0.000000    0.000000    0.000000
           2
 Time =    1168.0000000000000     
Ne    0.000000    0.000000    4.233416
Ne    0.000000    0.000000    0.000000
           2
 Time =    1169.0000000000000     
Ne    0.000000    0.000000    4.233416
Ne    0.000000    0.000000    0.000000
           2
 Time =    1170.0000000000000     
Ne    0.000000    0.000000    4.233416
Ne    0.000000    0.000000    0.000000
           2
 Time =    1171.0000000000000     
Ne    0.000000    0.000000    4.233416
Ne    0.000000    0.000000    0.000000
           2
 Time =    1172.0000000000000     
Ne    0.000000    0.000000    4.233416
Ne    0.000000    0.000000    0.000000
           2
 Time =    1173.0000000000000     
Ne    0.000000    0.000000    4.233416
Ne    0.000000    0.000000    0.000000
           2
 Time =    1174.0000000000000     
Ne    0.000000    0.000000    4.233416
Ne    0.000000    0.000000    0.000000
           2
 Time =    1175.0000000000000     
Ne    0.000000    0.000000    4.233416
Ne    0.000000    0.000000    0.000000
           2
 Time =    1176.0000000000000     
Ne    0.000000    0.000000    4.233416
Ne    0.000000    0.000000    0.000000
           2
 Time =    1177.0000000000000     
Ne    0.000000    0.000000    4.233416
Ne    0.000000    0.000000    0.000000
           2
 Time =    1178.0000000000000     
Ne    0.000000    0.000000    4.233416
Ne    0.000000    0.000000    0.000000
           2
 Time =    1179.0000000000000     
Ne    0.000000    0.000000    4.233416
Ne    0.000000    0.000000    0.000000
           2
 Time =    1180.0000000000000     
Ne    0.000000    0.000000    4.233416
Ne    0.000000    0.000000    0.000000
           2
 Time =    1181.0000000000000     
Ne    0.000000    0.000000    4.233416
Ne    0.000000    0.000000    0.000000
           2
 Time =    1182.0000000000000     
Ne    0.000000    0.000000    4.233416
Ne    0.000000    0.000000    0.000000
           2
 Time =    1183.0000000000000     
Ne    0.000000    0.000000    4.233416
Ne    0.000000    0.000000    0.000000
           2
 Time =    1184.0000000000000     
Ne    0.000000    0.000000    4.233416
Ne    0.000000    0.000000    0.000000
           2
 Time =    1185.0000000000000     
Ne    0.000000    0.000000    4.233416
Ne    0.000000    0.000000    0.000000
           2
 Time =    1186.0000000000000     
Ne    0.000000    0.000000    4.233416
Ne    0.000000    0.000000    0.000000
           2
 Time =    1187.0000000000000     
Ne    0.000000    0.000000    4.233416
Ne    0.000000    0.000000    0.000000
           2
 Time =    1188.0000000000000     
Ne    0.000000    0.000000    4.233416
Ne    0.000000    0.000000    0.000000
           2
 Time =    1189.0000000000000     
Ne    0.000000    0.000000    4.233416
Ne    0.000000    0.000000    0.000000
           2
 Time =    1190.0000000000000     
Ne    0.000000    0.000000    4.233416
Ne    0.000000    0.000000    0.000000
           2
 Time =    1191.0000000000000     
Ne    0.000000    0.000000    4.233416
Ne    0.000000    0.000000    0.000000
           2
 Time =    1192.0000000000000     
Ne    0.000000    0.000000    4.233416
Ne    0.000000    0.000000    0.000000
           2
 Time =    1193.0000000000000     
Ne    0.000000    0.000000    4.233416
Ne    0.000000    0.000000    0.000000
           2
 Time =    1194.0000000000000     
Ne    0.000000    0.000000    4.233416
Ne    0.000000    0.000000    0.000000
           2
 Time =    1195.0000000000000     
Ne    0.000000    0.000000    4.233416
Ne    0.000000    0.000000    0.000000
           2
 Time =    1196.0000000000000     
Ne    0.000000    0.000000    4.233416
Ne    0.000000    0.000000    0.000000
           2
 Time =    1197.0000000000000     
Ne    0.000000    0.000000    4.233416
Ne    0.000000    0.000000    0.000000
           2
 Time =    1198.0000000000000     
Ne    0.000000    0.000000    4.233416
Ne    0.000000    0.000000    0.000000
           2
 Time =    1199.0000000000000     
Ne    0.000000    0.000000    4.233416
Ne    0.000000    0.000000    0.000000
           2
 Time =    1200.0000000000000     
Ne    0.000000    0.000000    4.233416
Ne    0.000000    0.000000    0.000000
           2
 Time =    1201.0000000000000     
Ne    0.000000    0.000000    4.233416
Ne    0.000000    0.000000    0.000000
           2
 Time =    1202.0000000000000     
Ne    0.000000    0.000000    4.233416
Ne    0.000000    0.000000    0.000000
           2
 Time =    1203.0000000000000     
Ne    0.000000    0.000000    4.233416
Ne    0.000000    0.000000    0.000000
           2
 Time =    1204.0000000000000     
Ne    0.000000    0.000000    4.233416
Ne    0.000000    0.000000    0.000000
           2
 Time =    1205.0000000000000     
Ne    0.000000    0.000000    4.233416
Ne    0.000000    0.000000    0.000000
           2
 Time =    1206.0000000000000     
Ne    0.000000    0.000000    4.233416
Ne    0.000000    0.000000    0.000000
           2
 Time =    1207.0000000000000     
Ne    0.000000    0.000000    4.233416
Ne    0.000000    0.000000    0.000000
           2
 Time =    1208.0000000000000     
Ne    0.000000    0.000000    4.233416
Ne    0.000000    0.000000    0.000000
           2
 Time =    1209.0000000000000     
Ne    0.000000    0.000000    4.233416
Ne    0.000000    0.000000    0.000000
           2
 Time =    1210.0000000000000     
Ne    0.000000    0.000000    4.233416
Ne    0.000000    0.000000    0.000000
           2
 Time =    1211.0000000000000     
Ne    0.000000    0.000000    4.233416
Ne    0.000000    0.000000    0.000000
           2
 Time =    1212.0000000000000     
Ne    0.000000    0.000000    4.233416
Ne    0.000000    0.000000    0.000000
           2
 Time =    1213.0000000000000     
Ne    0.000000    0.000000    4.233416
Ne    0.000000    0.000000    0.000000
           2
 Time =    1214.0000000000000     
Ne    0.000000    0.000000    4.233416
Ne    0.000000    0.000000    0.000000
           2
 Time =    1215.0000000000000     
Ne    0.000000    0.000000    4.233416
Ne    0.000000    0.000000    0.000000
           2
 Time =    1216.0000000000000     
Ne    0.000000    0.000000    4.233416
Ne    0.000000    0.000000    0.000000
           2
 Time =    1217.0000000000000     
Ne    0.000000    0.000000    4.233416
Ne    0.000000    0.000000    0.000000
           2
 Time =    1218.0000000000000     
Ne    0.000000    0.000000    4.233416
Ne    0.000000    0.000000    0.000000
           2
 Time =    1219.0000000000000     
Ne    0.000000    0.000000    4.233416
Ne    0.000000    0.000000    0.000000
           2
 Time =    1220.0000000000000     
Ne    0.000000    0.000000    4.233416
Ne    0.000000    0.000000    0.000000
           2
 Time =    1221.0000000000000     
Ne    0.000000    0.000000    4.233416
Ne    0.000000    0.000000    0.000000
           2
 Time =    1222.0000000000000     
Ne    0.000000    0.000000    4.233416
Ne    0.000000    0.000000    0.000000
           2
 Time =    1223.0000000000000     
Ne    0.000000    0.000000    4.233416
Ne    0.000000    0.000000    0.000000
           2
 Time =    1224.0000000000000     
Ne    0.000000    0.000000    4.233416
Ne    0.000000    0.000000    0.000000
           2
 Time =    1225.0000000000000     
Ne    0.000000    0.000000    4.233416
Ne    0.000000    0.000000    0.000000
           2
 Time =    1226.0000000000000     
Ne    0.000000    0.000000    4.233416
Ne    0.000000    0.000000    0.000000
           2
 Time =    1227.0000000000000     
Ne    0.000000    0.000000    4.233416
Ne    0.000000    0.000000    0.000000
           2
 Time =    1228.0000000000000     
Ne    0.000000    0.000000    4.233416
Ne    0.000000    0.000000    0.000000
           2
 Time =    1229.0000000000000     
Ne    0.000000    0.000000    4.233416
Ne    0.000000    0.000000    0.000000
           2
 Time =    1230.0000000000000     
Ne    0.000000    0.000000    4.233416
Ne    0.000000    0.000000    0.000000
           2
 Time =    1231.0000000000000     
Ne    0.000000    0.000000    4.233416
Ne    0.000000    0.000000    0.000000
           2
 Time =    1232.0000000000000     
Ne    0.000000    0.000000    4.233416
Ne    0.000000    0.000000    0.000000
           2
 Time =    1233.0000000000000     
Ne    0.000000    0.000000    4.233416
Ne    0.000000    0.000000    0.000000
           2
 Time =    1234.0000000000000     
Ne    0.000000    0.000000    4.233416
Ne    0.000000    0.000000    0.000000
           2
 Time =    1235.0000000000000     
Ne    0.000000    0.000000    4.233416
Ne    0.000000    0.000000    0.000000
           2
 Time =    1236.0000000000000     
Ne    0.000000    0.000000    4.233416
Ne    0.000000    0.000000    0.000000
           2
 Time =    1237.0000000000000     
Ne    0.000000    0.000000    4.233416
Ne    0.000000    0.000000    0.000000
           2
 Time =    1238.0000000000000     
Ne    0.000000    0.000000    4.233416
Ne    0.000000    0.000000    0.000000
           2
 Time =    1239.0000000000000     
Ne    0.000000    0.000000    4.233416
Ne    0.000000    0.000000    0.000000
           2
 Time =    1240.0000000000000     
Ne    0.000000    0.000000    4.233416
Ne    0.000000    0.000000    0.000000
           2
 Time =    1241.0000000000000     
Ne    0.000000    0.000000    4.233416
Ne    0.000000    0.000000    0.000000
           2
 Time =    1242.0000000000000     
Ne    0.000000    0.000000    4.233416
Ne    0.000000    0.000000    0.000000
           2
 Time =    1243.0000000000000     
Ne    0.000000    0.000000    4.233416
Ne    0.000000    0.000000    0.000000
           2
 Time =    1244.0000000000000     
Ne    0.000000    0.000000    4.233416
Ne    0.000000    0.000000    0.000000
           2
 Time =    1245.0000000000000     
Ne    0.000000    0.000000    4.233416
Ne    0.000000    0.000000    0.000000
           2
 Time =    1246.0000000000000     
Ne    0.000000    0.000000    4.233416
Ne    0.000000    0.000000    0.000000
           2
 Time =    1247.0000000000000     
Ne    0.000000    0.000000    4.233416
Ne    0.000000    0.000000    0.000000
           2
 Time =    1248.0000000000000     
Ne    0.000000    0.000000    4.233416
Ne    0.000000    0.000000    0.000000
           2
 Time =    1249.0000000000000     
Ne    0.000000    0.000000    4.233416
Ne    0.000000    0.000000    0.000000
           2
 Time =    1250.0000000000000     
Ne    0.000000    0.000000    4.233416
Ne    0.000000    0.000000    0.000000
           2
 Time =    1251.0000000000000     
Ne    0.000000    0.000000    4.233416
Ne    0.000000    0.000000    0.000000
           2
 Time =    1252.0000000000000     
Ne    0.000000    0.000000    4.233416
Ne    0.000000    0.000000    0.000000
           2
 Time =    1253.0000000000000     
Ne    0.000000    0.000000    4.233416
Ne    0.000000    0.000000    0.000000
           2
 Time =    1254.0000000000000     
Ne    0.000000    0.000000    4.233416
Ne    0.000000    0.000000    0.000000
           2
 Time =    1255.0000000000000     
Ne    0.000000    0.000000    4.233416
Ne    0.000000    0.000000    0.000000
           2
 Time =    1256.0000000000000     
Ne    0.000000    0.000000    4.233416
Ne    0.000000    0.000000    0.000000
           2
 Time =    1257.0000000000000     
Ne    0.000000    0.000000    4.233416
Ne    0.000000    0.000000    0.000000
           2
 Time =    1258.0000000000000     
Ne    0.000000    0.000000    4.233416
Ne    0.000000    0.000000    0.000000
           2
 Time =    1259.0000000000000     
Ne    0.000000    0.000000    4.233416
Ne    0.000000    0.000000    0.000000
           2
 Time =    1260.0000000000000     
Ne    0.000000    0.000000    4.233416
Ne    0.000000    0.000000    0.000000
           2
 Time =    1261.0000000000000     
Ne    0.000000    0.000000    4.233416
Ne    0.000000    0.000000    0.000000
           2
 Time =    1262.0000000000000     
Ne    0.000000    0.000000    4.233416
Ne    0.000000    0.000000    0.000000
           2
 Time =    1263.0000000000000     
Ne    0.000000    0.000000    4.233416
Ne    0.000000    0.000000    0.000000
           2
 Time =    1264.0000000000000     
Ne    0.000000    0.000000    4.233416
Ne    0.000000    0.000000    0.000000
           2
 Time =    1265.0000000000000     
Ne    0.000000    0.000000    4.233416
Ne    0.000000    0.000000    0.000000
           2
 Time =    1266.0000000000000     
Ne    0.000000    0.000000    4.233416
Ne    0.000000    0.000000    0.000000
           2
 Time =    1267.0000000000000     
Ne    0.000000    0.000000    4.233416
Ne    0.000000    0.000000    0.000000
           2
 Time =    1268.0000000000000     
Ne    0.000000    0.000000    4.233416
Ne    0.000000    0.000000    0.000000
           2
 Time =    1269.0000000000000     
Ne    0.000000    0.000000    4.233416
Ne    0.000000    0.000000    0.000000
           2
 Time =    1270.0000000000000     
Ne    0.000000    0.000000    4.233416
Ne    0.000000    0.000000    0.000000
           2
 Time =    1271.0000000000000     
Ne    0.000000    0.000000    4.233416
Ne    0.000000    0.000000    0.000000
           2
 Time =    1272.0000000000000     
Ne    0.000000    0.000000    4.233416
Ne    0.000000    0.000000    0.000000
           2
 Time =    1273.0000000000000     
Ne    0.000000    0.000000    4.233416
Ne    0.000000    0.000000    0.000000
           2
 Time =    1274.0000000000000     
Ne    0.000000    0.000000    4.233416
Ne    0.000000    0.000000    0.000000
           2
 Time =    1275.0000000000000     
Ne    0.000000    0.000000    4.233416
Ne    0.000000    0.000000    0.000000
           2
 Time =    1276.0000000000000     
Ne    0.000000    0.000000    4.233416
Ne    0.000000    0.000000    0.000000
           2
 Time =    1277.0000000000000     
Ne    0.000000    0.000000    4.233416
Ne    0.000000    0.000000    0.000000
           2
 Time =    1278.0000000000000     
Ne    0.000000    0.000000    4.233416
Ne    0.000000    0.000000    0.000000
           2
 Time =    1279.0000000000000     
Ne    0.000000    0.000000    4.233416
Ne    0.000000    0.000000    0.000000
           2
 Time =    1280.0000000000000     
Ne    0.000000    0.000000    4.233416
Ne    0.000000    0.000000    0.000000
           2
 Time =    1281.0000000000000     
Ne    0.000000    0.000000    4.233416
Ne    0.000000    0.000000    0.000000
           2
 Time =    1282.0000000000000     
Ne    0.000000    0.000000    4.233416
Ne    0.000000    0.000000    0.000000
           2
 Time =    1283.0000000000000     
Ne    0.000000    0.000000    4.233416
Ne    0.000000    0.000000    0.000000
           2
 Time =    1284.0000000000000     
Ne    0.000000    0.000000    4.233416
Ne    0.000000    0.000000    0.000000
           2
 Time =    1285.0000000000000     
Ne    0.000000    0.000000    4.233416
Ne    0.000000    0.000000    0.000000
           2
 Time =    1286.0000000000000     
Ne    0.000000    0.000000    4.233416
Ne    0.000000    0.000000    0.000000
           2
 Time =    1287.0000000000000     
Ne    0.000000    0.000000    4.233416
Ne    0.000000    0.000000    0.000000
           2
 Time =    1288.0000000000000     
Ne    0.000000    0.000000    4.233416
Ne    0.000000    0.000000    0.000000
           2
 Time =    1289.0000000000000     
Ne    0.000000    0.000000    4.233416
Ne    0.000000    0.000000    0.000000
           2
 Time =    1290.0000000000000     
Ne    0.000000    0.000000    4.233416
Ne    0.000000    0.000000    0.000000
           2
 Time =    1291.0000000000000     
Ne    0.000000    0.000000    4.233416
Ne    0.000000    0.000000    0.000000
           2
 Time =    1292.0000000000000     
Ne    0.000000    0.000000    4.233416
Ne    0.000000    0.000000    0.000000
           2
 Time =    1293.0000000000000     
Ne    0.000000    0.000000    4.233416
Ne    0.000000    0.000000    0.000000
           2
 Time =    1294.0000000000000     
Ne    0.000000    0.000000    4.233416
Ne    0.000000    0.000000    0.000000
           2
 Time =    1295.0000000000000     
Ne    0.000000    0.000000    4.233416
Ne    0.000000    0.000000    0.000000
           2
 Time =    1296.0000000000000     
Ne    0.000000    0.000000    4.233416
Ne    0.000000    0.000000    0.000000
           2
 Time =    1297.0000000000000     
Ne    0.000000    0.000000    4.233416
Ne    0.000000    0.000000    0.000000
           2
 Time =    1298.0000000000000     
Ne    0.000000    0.000000    4.233416
Ne    0.000000    0.000000    0.000000
           2
 Time =    1299.0000000000000     
Ne    0.000000    0.000000    4.233416
Ne    0.000000    0.000000    0.000000
           2
 Time =    1300.0000000000000     
Ne    0.000000    0.000000    4.233416
Ne    0.000000    0.000000    0.000000
           2
 Time =    1301.0000000000000     
Ne    0.000000    0.000000    4.233416
Ne    0.000000    0.000000    0.000000
           2
 Time =    1302.0000000000000     
Ne    0.000000    0.000000    4.233416
Ne    0.000000    0.000000    0.000000
           2
 Time =    1303.0000000000000     
Ne    0.000000    0.000000    4.233416
Ne    0.000000    0.000000    0.000000
           2
 Time =    1304.0000000000000     
Ne    0.000000    0.000000    4.233416
Ne    0.000000    0.000000    0.000000
           2
 Time =    1305.0000000000000     
Ne    0.000000    0.000000    4.233416
Ne    0.000000    0.000000    0.000000
           2
 Time =    1306.0000000000000     
Ne    0.000000    0.000000    4.233416
Ne    0.000000    0.000000    0.000000
           2
 Time =    1307.0000000000000     
Ne    0.000000    0.000000    4.233416
Ne    0.000000    0.000000    0.000000
           2
 Time =    1308.0000000000000     
Ne    0.000000    0.000000    4.233416
Ne    0.000000    0.000000    0.000000
           2
 Time =    1309.0000000000000     
Ne    0.000000    0.000000    4.233416
Ne    0.000000    0.000000    0.000000
           2
 Time =    1310.0000000000000     
Ne    0.000000    0.000000    4.233416
Ne    0.000000    0.000000    0.000000
           2
 Time =    1311.0000000000000     
Ne    0.000000    0.000000    4.233416
Ne    0.000000    0.000000    0.000000
           2
 Time =    1312.0000000000000     
Ne    0.000000    0.000000    4.233416
Ne    0.000000    0.000000    0.000000
           2
 Time =    1313.0000000000000     
Ne    0.000000    0.000000    4.233416
Ne    0.000000    0.000000    0.000000
           2
 Time =    1314.0000000000000     
Ne    0.000000    0.000000    4.233416
Ne    0.000000    0.000000    0.000000
           2
 Time =    1315.0000000000000     
Ne    0.000000    0.000000    4.233416
Ne    0.000000    0.000000    0.000000
           2
 Time =    1316.0000000000000     
Ne    0.000000    0.000000    4.233416
Ne    0.000000    0.000000    0.000000
           2
 Time =    1317.0000000000000     
Ne    0.000000    0.000000    4.233416
Ne    0.000000    0.000000    0.000000
           2
 Time =    1318.0000000000000     
Ne    0.000000    0.000000    4.233416
Ne    0.000000    0.000000    0.000000
           2
 Time =    1319.0000000000000     
Ne    0.000000    0.000000    4.233416
Ne    0.000000    0.000000    0.000000
           2
 Time =    1320.0000000000000     
Ne    0.000000    0.000000    4.233416
Ne    0.000000    0.000000    0.000000
           2
 Time =    1321.0000000000000     
Ne    0.000000    0.000000    4.233416
Ne    0.000000    0.000000    0.000000
           2
 Time =    1322.0000000000000     
Ne    0.000000    0.000000    4.233416
Ne    0.000000    0.000000    0.000000
           2
 Time =    1323.0000000000000     
Ne    0.000000    0.000000    4.233416
Ne    0.000000    0.000000    0.000000
           2
 Time =    1324.0000000000000     
Ne    0.000000    0.000000    4.233416
Ne    0.000000    0.000000    0.000000
           2
 Time =    1325.0000000000000     
Ne    0.000000    0.000000    4.233416
Ne    0.000000    0.000000    0.000000
           2
 Time =    1326.0000000000000     
Ne    0.000000    0.000000    4.233416
Ne    0.000000    0.000000    0.000000
           2
 Time =    1327.0000000000000     
Ne    0.000000    0.000000    4.233416
Ne    0.000000    0.000000    0.000000
           2
 Time =    1328.0000000000000     
Ne    0.000000    0.000000    4.233416
Ne    0.000000    0.000000    0.000000
           2
 Time =    1329.0000000000000     
Ne    0.000000    0.000000    4.233416
Ne    0.000000    0.000000    0.000000
           2
 Time =    1330.0000000000000     
Ne    0.000000    0.000000    4.233416
Ne    0.000000    0.000000    0.000000
           2
 Time =    1331.0000000000000     
Ne    0.000000    0.000000    4.233416
Ne    0.000000    0.000000    0.000000
           2
 Time =    1332.0000000000000     
Ne    0.000000    0.000000    4.233416
Ne    0.000000    0.000000    0.000000
           2
 Time =    1333.0000000000000     
Ne    0.000000    0.000000    4.233416
Ne    0.000000    0.000000    0.000000
           2
 Time =    1334.0000000000000     
Ne    0.000000    0.000000    4.233416
Ne    0.000000    0.000000    0.000000
           2
 Time =    1335.0000000000000     
Ne    0.000000    0.000000    4.233416
Ne    0.000000    0.000000    0.000000
           2
 Time =    1336.0000000000000     
Ne    0.000000    0.000000    4.233416
Ne    0.000000    0.000000    0.000000
           2
 Time =    1337.0000000000000     
Ne    0.000000    0.000000    4.233416
Ne    0.000000    0.000000    0.000000
           2
 Time =    1338.0000000000000     
Ne    0.000000    0.000000    4.233416
Ne    0.000000    0.000000    0.000000
           2
 Time =    1339.0000000000000     
Ne    0.000000    0.000000    4.233416
Ne    0.000000    0.000000    0.000000
           2
 Time =    1340.0000000000000     
Ne    0.000000    0.000000    4.233416
Ne    0.000000    0.000000    0.000000
           2
 Time =    1341.0000000000000     
Ne    0.000000    0.000000    4.233416
Ne    0.000000    0.000000    0.000000
           2
 Time =    1342.0000000000000     
Ne    0.000000    0.000000    4.233416
Ne    0.000000    0.000000    0.000000
           2
 Time =    1343.0000000000000     
Ne    0.000000    0.000000    4.233416
Ne    0.000000    0.000000    0.000000
           2
 Time =    1344.0000000000000     
Ne    0.000000    0.000000    4.233416
Ne    0.000000    0.000000    0.000000
           2
 Time =    1345.0000000000000     
Ne    0.000000    0.000000    4.233416
Ne    0.000000    0.000000    0.000000
           2
 Time =    1346.0000000000000     
Ne    0.000000    0.000000    4.233416
Ne    0.000000    0.000000    0.000000
           2
 Time =    1347.0000000000000     
Ne    0.000000    0.000000    4.233416
Ne    0.000000    0.000000    0.000000
           2
 Time =    1348.0000000000000     
Ne    0.000000    0.000000    4.233416
Ne    0.000000    0.000000    0.000000
           2
 Time =    1349.0000000000000     
Ne    0.000000    0.000000    4.233416
Ne    0.000000    0.000000    0.000000
           2
 Time =    1350.0000000000000     
Ne    0.000000    0.000000    4.233416
Ne    0.000000    0.000000    0.000000
           2
 Time =    1351.0000000000000     
Ne    0.000000    0.000000    4.233416
Ne    0.000000    0.000000    0.000000
           2
 Time =    1352.0000000000000     
Ne    0.000000    0.000000    4.233416
Ne    0.000000    0.000000    0.000000
           2
 Time =    1353.0000000000000     
Ne    0.000000    0.000000    4.233416
Ne    0.000000    0.000000    0.000000
           2
 Time =    1354.0000000000000     
Ne    0.000000    0.000000    4.233416
Ne    0.000000    0.000000    0.000000
           2
 Time =    1355.0000000000000     
Ne    0.000000    0.000000    4.233416
Ne    0.000000    0.000000    0.000000
           2
 Time =    1356.0000000000000     
Ne    0.000000    0.000000    4.233416
Ne    0.000000    0.000000    0.000000
           2
 Time =    1357.0000000000000     
Ne    0.000000    0.000000    4.233416
Ne    0.000000    0.000000    0.000000
           2
 Time =    1358.0000000000000     
Ne    0.000000    0.000000    4.233416
Ne    0.000000    0.000000    0.000000
           2
 Time =    1359.0000000000000     
Ne    0.000000    0.000000    4.233416
Ne    0.000000    0.000000    0.000000
           2
 Time =    1360.0000000000000     
Ne    0.000000    0.000000    4.233416
Ne    0.000000    0.000000    0.000000
           2
 Time =    1361.0000000000000     
Ne    0.000000    0.000000    4.233416
Ne    0.000000    0.000000    0.000000
           2
 Time =    1362.0000000000000     
Ne    0.000000    0.000000    4.233416
Ne    0.000000    0.000000    0.000000
           2
 Time =    1363.0000000000000     
Ne    0.000000    0.000000    4.233416
Ne    0.000000    0.000000    0.000000
           2
 Time =    1364.0000000000000     
Ne    0.000000    0.000000    4.233416
Ne    0.000000    0.000000    0.000000
           2
 Time =    1365.0000000000000     
Ne    0.000000    0.000000    4.233416
Ne    0.000000    0.000000    0.000000
           2
 Time =    1366.0000000000000     
Ne    0.000000    0.000000    4.233416
Ne    0.000000    0.000000    0.000000
           2
 Time =    1367.0000000000000     
Ne    0.000000    0.000000    4.233416
Ne    0.000000    0.000000    0.000000
           2
 Time =    1368.0000000000000     
Ne    0.000000    0.000000    4.233416
Ne    0.000000    0.000000    0.000000
           2
 Time =    1369.0000000000000     
Ne    0.000000    0.000000    4.233416
Ne    0.000000    0.000000    0.000000
           2
 Time =    1370.0000000000000     
Ne    0.000000    0.000000    4.233416
Ne    0.000000    0.000000    0.000000
           2
 Time =    1371.0000000000000     
Ne    0.000000    0.000000    4.233416
Ne    0.000000    0.000000    0.000000
           2
 Time =    1372.0000000000000     
Ne    0.000000    0.000000    4.233416
Ne    0.000000    0.000000    0.000000
           2
 Time =    1373.0000000000000     
Ne    0.000000    0.000000    4.233416
Ne    0.000000    0.000000    0.000000
           2
 Time =    1374.0000000000000     
Ne    0.000000    0.000000    4.233416
Ne    0.000000    0.000000    0.000000
           2
 Time =    1375.0000000000000     
Ne    0.000000    0.000000    4.233416
Ne    0.000000    0.000000    0.000000
           2
 Time =    1376.0000000000000     
Ne    0.000000    0.000000    4.233416
Ne    0.000000    0.000000    0.000000
           2
 Time =    1377.0000000000000     
Ne    0.000000    0.000000    4.233416
Ne    0.000000    0.000000    0.000000
           2
 Time =    1378.0000000000000     
Ne    0.000000    0.000000    4.233416
Ne    0.000000    0.000000    0.000000
           2
 Time =    1379.0000000000000     
Ne    0.000000    0.000000    4.233416
Ne    0.000000    0.000000    0.000000
           2
 Time =    1380.0000000000000     
Ne    0.000000    0.000000    4.233416
Ne    0.000000    0.000000    0.000000
           2
 Time =    1381.0000000000000     
Ne    0.000000    0.000000    4.233416
Ne    0.000000    0.000000    0.000000
           2
 Time =    1382.0000000000000     
Ne    0.000000    0.000000    4.233416
Ne    0.000000    0.000000    0.000000
           2
 Time =    1383.0000000000000     
Ne    0.000000    0.000000    4.233416
Ne    0.000000    0.000000    0.000000
           2
 Time =    1384.0000000000000     
Ne    0.000000    0.000000    4.233416
Ne    0.000000    0.000000    0.000000
           2
 Time =    1385.0000000000000     
Ne    0.000000    0.000000    4.233416
Ne    0.000000    0.000000    0.000000
           2
 Time =    1386.0000000000000     
Ne    0.000000    0.000000    4.233416
Ne    0.000000    0.000000    0.000000
           2
 Time =    1387.0000000000000     
Ne    0.000000    0.000000    4.233416
Ne    0.000000    0.000000    0.000000
           2
 Time =    1388.0000000000000     
Ne    0.000000    0.000000    4.233416
Ne    0.000000    0.000000    0.000000
           2
 Time =    1389.0000000000000     
Ne    0.000000    0.000000    4.233416
Ne    0.000000    0.000000    0.000000
           2
 Time =    1390.0000000000000     
Ne    0.000000    0.000000    4.233416
Ne    0.000000    0.000000    0.000000
           2
 Time =    1391.0000000000000     
Ne    0.000000    0.000000    4.233416
Ne    0.000000    0.000000    0.000000
           2
 Time =    1392.0000000000000     
Ne    0.000000    0.000000    4.233416
Ne    0.000000    0.000000    0.000000
           2
 Time =    1393.0000000000000     
Ne    0.000000    0.000000    4.233416
Ne    0.000000    0.000000    0.000000
           2
 Time =    1394.0000000000000     
Ne    0.000000    0.000000    4.233416
Ne    0.000000    0.000000    0.000000
           2
 Time =    1395.0000000000000     
Ne    0.000000    0.000000    4.233416
Ne    0.000000    0.000000    0.000000
           2
 Time =    1396.0000000000000     
Ne    0.000000    0.000000    4.233416
Ne    0.000000    0.000000    0.000000
           2
 Time =    1397.0000000000000     
Ne    0.000000    0.000000    4.233416
Ne    0.000000    0.000000    0.000000
           2
 Time =    1398.0000000000000     
Ne    0.000000    0.000000    4.233416
Ne    0.000000    0.000000    0.000000
           2
 Time =    1399.0000000000000     
Ne    0.000000    0.000000    4.233416
Ne    0.000000    0.000000    0.000000
           2
 Time =    1400.0000000000000     
Ne    0.000000    0.000000    4.233416
Ne    0.000000    0.000000    0.000000
           2
 Time =    1401.0000000000000     
Ne    0.000000    0.000000    4.233416
Ne    0.000000    0.000000    0.000000
           2
 Time =    1402.0000000000000     
Ne    0.000000    0.000000    4.233416
Ne    0.000000    0.000000    0.000000
           2
 Time =    1403.0000000000000     
Ne    0.000000    0.000000    4.233416
Ne    0.000000    0.000000    0.000000
           2
 Time =    1404.0000000000000     
Ne    0.000000    0.000000    4.233416
Ne    0.000000    0.000000    0.000000
           2
 Time =    1405.0000000000000     
Ne    0.000000    0.000000    4.233416
Ne    0.000000    0.000000    0.000000
           2
 Time =    1406.0000000000000     
Ne    0.000000    0.000000    4.233416
Ne    0.000000    0.000000    0.000000
           2
 Time =    1407.0000000000000     
Ne    0.000000    0.000000    4.233416
Ne    0.000000    0.000000    0.000000
           2
 Time =    1408.0000000000000     
Ne    0.000000    0.000000    4.233416
Ne    0.000000    0.000000    0.000000
           2
 Time =    1409.0000000000000     
Ne    0.000000    0.000000    4.233416
Ne    0.000000    0.000000    0.000000
           2
 Time =    1410.0000000000000     
Ne    0.000000    0.000000    4.233416
Ne    0.000000    0.000000    0.000000
           2
 Time =    1411.0000000000000     
Ne    0.000000    0.000000    4.233416
Ne    0.000000    0.000000    0.000000
           2
 Time =    1412.0000000000000     
Ne    0.000000    0.000000    4.233416
Ne    0.000000    0.000000    0.000000
           2
 Time =    1413.0000000000000     
Ne    0.000000    0.000000    4.233416
Ne    0.000000    0.000000    0.000000
           2
 Time =    1414.0000000000000     
Ne    0.000000    0.000000    4.233416
Ne    0.000000    0.000000    0.000000
           2
 Time =    1415.0000000000000     
Ne    0.000000    0.000000    4.233416
Ne    0.000000    0.000000    0.000000
           2
 Time =    1416.0000000000000     
Ne    0.000000    0.000000    4.233416
Ne    0.000000    0.000000    0.000000
           2
 Time =    1417.0000000000000     
Ne    0.000000    0.000000    4.233416
Ne    0.000000    0.000000    0.000000
           2
 Time =    1418.0000000000000     
Ne    0.000000    0.000000    4.233416
Ne    0.000000    0.000000    0.000000
           2
 Time =    1419.0000000000000     
Ne    0.000000    0.000000    4.233416
Ne    0.000000    0.000000    0.000000
           2
 Time =    1420.0000000000000     
Ne    0.000000    0.000000    4.233416
Ne    0.000000    0.000000    0.000000
           2
 Time =    1421.0000000000000     
Ne    0.000000    0.000000    4.233416
Ne    0.000000    0.000000    0.000000
           2
 Time =    1422.0000000000000     
Ne    0.000000    0.000000    4.233416
Ne    0.000000    0.000000    0.000000
           2
 Time =    1423.0000000000000     
Ne    0.000000    0.000000    4.233416
Ne    0.000000    0.000000    0.000000
           2
 Time =    1424.0000000000000     
Ne    0.000000    0.000000    4.233416
Ne    0.000000    0.000000    0.000000
           2
 Time =    1425.0000000000000     
Ne    0.000000    0.000000    4.233416
Ne    0.000000    0.000000    0.000000
           2
 Time =    1426.0000000000000     
Ne    0.000000    0.000000    4.233416
Ne    0.000000    0.000000    0.000000
           2
 Time =    1427.0000000000000     
Ne    0.000000    0.000000    4.233416
Ne    0.000000    0.000000    0.000000
           2
 Time =    1428.0000000000000     
Ne    0.000000    0.000000    4.233416
Ne    0.000000    0.000000    0.000000
           2
 Time =    1429.0000000000000     
Ne    0.000000    0.000000    4.233416
Ne    0.000000    0.000000    0.000000
           2
 Time =    1430.0000000000000     
Ne    0.000000    0.000000    4.233416
Ne    0.000000    0.000000    0.000000
           2
 Time =    1431.0000000000000     
Ne    0.000000    0.000000    4.233416
Ne    0.000000    0.000000    0.000000
           2
 Time =    1432.0000000000000     
Ne    0.000000    0.000000    4.233416
Ne    0.000000    0.000000    0.000000
           2
 Time =    1433.0000000000000     
Ne    0.000000    0.000000    4.233416
Ne    0.000000    0.000000    0.000000
           2
 Time =    1434.0000000000000     
Ne    0.000000    0.000000    4.233416
Ne    0.000000    0.000000    0.000000
           2
 Time =    1435.0000000000000     
Ne    0.000000    0.000000    4.233416
Ne    0.000000    0.000000    0.000000
           2
 Time =    1436.0000000000000     
Ne    0.000000    0.000000    4.233416
Ne    0.000000    0.000000    0.000000
           2
 Time =    1437.0000000000000     
Ne    0.000000    0.000000    4.233416
Ne    0.000000    0.000000    0.000000
           2
 Time =    1438.0000000000000     
Ne    0.000000    0.000000    4.233416
Ne    0.000000    0.000000    0.000000
           2
 Time =    1439.0000000000000     
Ne    0.000000    0.000000    4.233416
Ne    0.000000    0.000000    0.000000
           2
 Time =    1440.0000000000000     
Ne    0.000000    0.000000    4.233416
Ne    0.000000    0.000000    0.000000
           2
 Time =    1441.0000000000000     
Ne    0.000000    0.000000    4.233416
Ne    0.000000    0.000000    0.000000
           2
 Time =    1442.0000000000000     
Ne    0.000000    0.000000    4.233416
Ne    0.000000    0.000000    0.000000
           2
 Time =    1443.0000000000000     
Ne    0.000000    0.000000    4.233416
Ne    0.000000    0.000000    0.000000
           2
 Time =    1444.0000000000000     
Ne    0.000000    0.000000    4.233416
Ne    0.000000    0.000000    0.000000
           2
 Time =    1445.0000000000000     
Ne    0.000000    0.000000    4.233416
Ne    0.000000    0.000000    0.000000
           2
 Time =    1446.0000000000000     
Ne    0.000000    0.000000    4.233416
Ne    0.000000    0.000000    0.000000
           2
 Time =    1447.0000000000000     
Ne    0.000000    0.000000    4.233416
Ne    0.000000    0.000000    0.000000
           2
 Time =    1448.0000000000000     
Ne    0.000000    0.000000    4.233416
Ne    0.000000    0.000000    0.000000
           2
 Time =    1449.0000000000000     
Ne    0.000000    0.000000    4.233416
Ne    0.000000    0.000000    0.000000
           2
 Time =    1450.0000000000000     
Ne    0.000000    0.000000    4.233416
Ne    0.000000    0.000000    0.000000
           2
 Time =    1451.0000000000000     
Ne    0.000000    0.000000    4.233416
Ne    0.000000    0.000000    0.000000
           2
 Time =    1452.0000000000000     
Ne    0.000000    0.000000    4.233416
Ne    0.000000    0.000000    0.000000
           2
 Time =    1453.0000000000000     
Ne    0.000000    0.000000    4.233416
Ne    0.000000    0.000000    0.000000
           2
 Time =    1454.0000000000000     
Ne    0.000000    0.000000    4.233416
Ne    0.000000    0.000000    0.000000
           2
 Time =    1455.0000000000000     
Ne    0.000000    0.000000    4.233416
Ne    0.000000    0.000000    0.000000
           2
 Time =    1456.0000000000000     
Ne    0.000000    0.000000    4.233416
Ne    0.000000    0.000000    0.000000
           2
 Time =    1457.0000000000000     
Ne    0.000000    0.000000    4.233416
Ne    0.000000    0.000000    0.000000
           2
 Time =    1458.0000000000000     
Ne    0.000000    0.000000    4.233416
Ne    0.000000    0.000000    0.000000
           2
 Time =    1459.0000000000000     
Ne    0.000000    0.000000    4.233416
Ne    0.000000    0.000000    0.000000
           2
 Time =    1460.0000000000000     
Ne    0.000000    0.000000    4.233416
Ne    0.000000    0.000000    0.000000
           2
 Time =    1461.0000000000000     
Ne    0.000000    0.000000    4.233416
Ne    0.000000    0.000000    0.000000
           2
 Time =    1462.0000000000000     
Ne    0.000000    0.000000    4.233416
Ne    0.000000    0.000000    0.000000
           2
 Time =    1463.0000000000000     
Ne    0.000000    0.000000    4.233416
Ne    0.000000    0.000000    0.000000
           2
 Time =    1464.0000000000000     
Ne    0.000000    0.000000    4.233416
Ne    0.000000    0.000000    0.000000
           2
 Time =    1465.0000000000000     
Ne    0.000000    0.000000    4.233416
Ne    0.000000    0.000000    0.000000
           2
 Time =    1466.0000000000000     
Ne    0.000000    0.000000    4.233416
Ne    0.000000    0.000000    0.000000
           2
 Time =    1467.0000000000000     
Ne    0.000000    0.000000    4.233416
Ne    0.000000    0.000000    0.000000
           2
 Time =    1468.0000000000000     
Ne    0.000000    0.000000    4.233416
Ne    0.000000    0.000000    0.000000
           2
 Time =    1469.0000000000000     
Ne    0.000000    0.000000    4.233416
Ne    0.000000    0.000000    0.000000
           2
 Time =    1470.0000000000000     
Ne    0.000000    0.000000    4.233416
Ne    0.000000    0.000000    0.000000
           2
 Time =    1471.0000000000000     
Ne    0.000000    0.000000    4.233416
Ne    0.000000    0.000000    0.000000
           2
 Time =    1472.0000000000000     
Ne    0.000000    0.000000    4.233416
Ne    0.000000    0.000000    0.000000
           2
 Time =    1473.0000000000000     
Ne    0.000000    0.000000    4.233416
Ne    0.000000    0.000000    0.000000
           2
 Time =    1474.0000000000000     
Ne    0.000000    0.000000    4.233416
Ne    0.000000    0.000000    0.000000
           2
 Time =    1475.0000000000000     
Ne    0.000000    0.000000    4.233416
Ne    0.000000    0.000000    0.000000
           2
 Time =    1476.0000000000000     
Ne    0.000000    0.000000    4.233416
Ne    0.000000    0.000000    0.000000
           2
 Time =    1477.0000000000000     
Ne    0.000000    0.000000    4.233416
Ne    0.000000    0.000000    0.000000
           2
 Time =    1478.0000000000000     
Ne    0.000000    0.000000    4.233416
Ne    0.000000    0.000000    0.000000
           2
 Time =    1479.0000000000000     
Ne    0.000000    0.000000    4.233416
Ne    0.000000    0.000000    0.000000
           2
 Time =    1480.0000000000000     
Ne    0.000000    0.000000    4.233416
Ne    0.000000    0.000000    0.000000
           2
 Time =    1481.0000000000000     
Ne    0.000000    0.000000    4.233416
Ne    0.000000    0.000000    0.000000
           2
 Time =    1482.0000000000000     
Ne    0.000000    0.000000    4.233416
Ne    0.000000    0.000000    0.000000
           2
 Time =    1483.0000000000000     
Ne    0.000000    0.000000    4.233416
Ne    0.000000    0.000000    0.000000
           2
 Time =    1484.0000000000000     
Ne    0.000000    0.000000    4.233416
Ne    0.000000    0.000000    0.000000
           2
 Time =    1485.0000000000000     
Ne    0.000000    0.000000    4.233416
Ne    0.000000    0.000000    0.000000
           2
 Time =    1486.0000000000000     
Ne    0.000000    0.000000    4.233416
Ne    0.000000    0.000000    0.000000
           2
 Time =    1487.0000000000000     
Ne    0.000000    0.000000    4.233416
Ne    0.000000    0.000000    0.000000
           2
 Time =    1488.0000000000000     
Ne    0.000000    0.000000    4.233416
Ne    0.000000    0.000000    0.000000
           2
 Time =    1489.0000000000000     
Ne    0.000000    0.000000    4.233416
Ne    0.000000    0.000000    0.000000
           2
 Time =    1490.0000000000000     
Ne    0.000000    0.000000    4.233416
Ne    0.000000    0.000000    0.000000
           2
 Time =    1491.0000000000000     
Ne    0.000000    0.000000    4.233416
Ne    0.000000    0.000000    0.000000
           2
 Time =    1492.0000000000000     
Ne    0.000000    0.000000    4.233416
Ne    0.000000    0.000000    0.000000
           2
 Time =    1493.0000000000000     
Ne    0.000000    0.000000    4.233416
Ne    0.000000    0.000000    0.000000
           2
 Time =    1494.0000000000000     
Ne    0.000000    0.000000    4.233416
Ne    0.000000    0.000000    0.000000
           2
 Time =    1495.0000000000000     
Ne    0.000000    0.000000    4.233416
Ne    0.000000    0.000000    0.000000
           2
 Time =    1496.0000000000000     
Ne    0.000000    0.000000    4.233416
Ne    0.000000    0.000000    0.000000
           2
 Time =    1497.0000000000000     
Ne    0.000000    0.000000    4.233416
Ne    0.000000    0.000000    0.000000
           2
 Time =    1498.0000000000000     
Ne    0.000000    0.000000    4.233416
Ne    0.000000    0.000000    0.000000
           2
 Time =    1499.0000000000000     
Ne    0.000000    0.000000    4.233416
Ne    0.000000    0.000000    0.000000
           2
 Time =    1500.0000000000000     
Ne    0.000000    0.000000    4.233416
Ne    0.000000    0.000000    0.000000
           2
 Time =    1501.0000000000000     
Ne    0.000000    0.000000    4.233416
Ne    0.000000    0.000000    0.000000
           2
 Time =    1502.0000000000000     
Ne    0.000000    0.000000    4.233416
Ne    0.000000    0.000000    0.000000
           2
 Time =    1503.0000000000000     
Ne    0.000000    0.000000    4.233416
Ne    0.000000    0.000000    0.000000
           2
 Time =    1504.0000000000000     
Ne    0.000000    0.000000    4.233416
Ne    0.000000    0.000000    0.000000
           2
 Time =    1505.0000000000000     
Ne    0.000000    0.000000    4.233416
Ne    0.000000    0.000000    0.000000
           2
 Time =    1506.0000000000000     
Ne    0.000000    0.000000    4.233416
Ne    0.000000    0.000000    0.000000
           2
 Time =    1507.0000000000000     
Ne    0.000000    0.000000    4.233416
Ne    0.000000    0.000000    0.000000
           2
 Time =    1508.0000000000000     
Ne    0.000000    0.000000    4.233416
Ne    0.000000    0.000000    0.000000
           2
 Time =    1509.0000000000000     
Ne    0.000000    0.000000    4.233416
Ne    0.000000    0.000000    0.000000
           2
 Time =    1510.0000000000000     
Ne    0.000000    0.000000    4.233416
Ne    0.000000    0.000000    0.000000
           2
 Time =    1511.0000000000000     
Ne    0.000000    0.000000    4.233416
Ne    0.000000    0.000000    0.000000
           2
 Time =    1512.0000000000000     
Ne    0.000000    0.000000    4.233416
Ne    0.000000    0.000000    0.000000
           2
 Time =    1513.0000000000000     
Ne    0.000000    0.000000    4.233416
Ne    0.000000    0.000000    0.000000
           2
 Time =    1514.0000000000000     
Ne    0.000000    0.000000    4.233416
Ne    0.000000    0.000000    0.000000
           2
 Time =    1515.0000000000000     
Ne    0.000000    0.000000    4.233416
Ne    0.000000    0.000000    0.000000
           2
 Time =    1516.0000000000000     
Ne    0.000000    0.000000    4.233416
Ne    0.000000    0.000000    0.000000
           2
 Time =    1517.0000000000000     
Ne    0.000000    0.000000    4.233416
Ne    0.000000    0.000000    0.000000
           2
 Time =    1518.0000000000000     
Ne    0.000000    0.000000    4.233416
Ne    0.000000    0.000000    0.000000
           2
 Time =    1519.0000000000000     
Ne    0.000000    0.000000    4.233416
Ne    0.000000    0.000000    0.000000
           2
 Time =    1520.0000000000000     
Ne    0.000000    0.000000    4.233416
Ne    0.000000    0.000000    0.000000
           2
 Time =    1521.0000000000000     
Ne    0.000000    0.000000    4.233416
Ne    0.000000    0.000000    0.000000
           2
 Time =    1522.0000000000000     
Ne    0.000000    0.000000    4.233416
Ne    0.000000    0.000000    0.000000
           2
 Time =    1523.0000000000000     
Ne    0.000000    0.000000    4.233416
Ne    0.000000    0.000000    0.000000
           2
 Time =    1524.0000000000000     
Ne    0.000000    0.000000    4.233416
Ne    0.000000    0.000000    0.000000
           2
 Time =    1525.0000000000000     
Ne    0.000000    0.000000    4.233416
Ne    0.000000    0.000000    0.000000
           2
 Time =    1526.0000000000000     
Ne    0.000000    0.000000    4.233416
Ne    0.000000    0.000000    0.000000
           2
 Time =    1527.0000000000000     
Ne    0.000000    0.000000    4.233416
Ne    0.000000    0.000000    0.000000
           2
 Time =    1528.0000000000000     
Ne    0.000000    0.000000    4.233416
Ne    0.000000    0.000000    0.000000
           2
 Time =    1529.0000000000000     
Ne    0.000000    0.000000    4.233416
Ne    0.000000    0.000000    0.000000
           2
 Time =    1530.0000000000000     
Ne    0.000000    0.000000    4.233416
Ne    0.000000    0.000000    0.000000
           2
 Time =    1531.0000000000000     
Ne    0.000000    0.000000    4.233416
Ne    0.000000    0.000000    0.000000
           2
 Time =    1532.0000000000000     
Ne    0.000000    0.000000    4.233416
Ne    0.000000    0.000000    0.000000
           2
 Time =    1533.0000000000000     
Ne    0.000000    0.000000    4.233416
Ne    0.000000    0.000000    0.000000
           2
 Time =    1534.0000000000000     
Ne    0.000000    0.000000    4.233416
Ne    0.000000    0.000000    0.000000
           2
 Time =    1535.0000000000000     
Ne    0.000000    0.000000    4.233416
Ne    0.000000    0.000000    0.000000
           2
 Time =    1536.0000000000000     
Ne    0.000000    0.000000    4.233416
Ne    0.000000    0.000000    0.000000
           2
 Time =    1537.0000000000000     
Ne    0.000000    0.000000    4.233416
Ne    0.000000    0.000000    0.000000
           2
 Time =    1538.0000000000000     
Ne    0.000000    0.000000    4.233416
Ne    0.000000    0.000000    0.000000
           2
 Time =    1539.0000000000000     
Ne    0.000000    0.000000    4.233416
Ne    0.000000    0.000000    0.000000
           2
 Time =    1540.0000000000000     
Ne    0.000000    0.000000    4.233416
Ne    0.000000    0.000000    0.000000
           2
 Time =    1541.0000000000000     
Ne    0.000000    0.000000    4.233416
Ne    0.000000    0.000000    0.000000
           2
 Time =    1542.0000000000000     
Ne    0.000000    0.000000    4.233416
Ne    0.000000    0.000000    0.000000
           2
 Time =    1543.0000000000000     
Ne    0.000000    0.000000    4.233416
Ne    0.000000    0.000000    0.000000
           2
 Time =    1544.0000000000000     
Ne    0.000000    0.000000    4.233416
Ne    0.000000    0.000000    0.000000
           2
 Time =    1545.0000000000000     
Ne    0.000000    0.000000    4.233416
Ne    0.000000    0.000000    0.000000
           2
 Time =    1546.0000000000000     
Ne    0.000000    0.000000    4.233416
Ne    0.000000    0.000000    0.000000
           2
 Time =    1547.0000000000000     
Ne    0.000000    0.000000    4.233416
Ne    0.000000    0.000000    0.000000
           2
 Time =    1548.0000000000000     
Ne    0.000000    0.000000    4.233416
Ne    0.000000    0.000000    0.000000
           2
 Time =    1549.0000000000000     
Ne    0.000000    0.000000    4.233416
Ne    0.000000    0.000000    0.000000
           2
 Time =    1550.0000000000000     
Ne    0.000000    0.000000    4.233416
Ne    0.000000    0.000000    0.000000
           2
 Time =    1551.0000000000000     
Ne    0.000000    0.000000    4.233416
Ne    0.000000    0.000000    0.000000
           2
 Time =    1552.0000000000000     
Ne    0.000000    0.000000    4.233416
Ne    0.000000    0.000000    0.000000
           2
 Time =    1553.0000000000000     
Ne    0.000000    0.000000    4.233416
Ne    0.000000    0.000000    0.000000
           2
 Time =    1554.0000000000000     
Ne    0.000000    0.000000    4.233416
Ne    0.000000    0.000000    0.000000
           2
 Time =    1555.0000000000000     
Ne    0.000000    0.000000    4.233416
Ne    0.000000    0.000000    0.000000
           2
 Time =    1556.0000000000000     
Ne    0.000000    0.000000    4.233416
Ne    0.000000    0.000000    0.000000
           2
 Time =    1557.0000000000000     
Ne    0.000000    0.000000    4.233416
Ne    0.000000    0.000000    0.000000
           2
 Time =    1558.0000000000000     
Ne    0.000000    0.000000    4.233416
Ne    0.000000    0.000000    0.000000
           2
 Time =    1559.0000000000000     
Ne    0.000000    0.000000    4.233416
Ne    0.000000    0.000000    0.000000
           2
 Time =    1560.0000000000000     
Ne    0.000000    0.000000    4.233416
Ne    0.000000    0.000000    0.000000
           2
 Time =    1561.0000000000000     
Ne    0.000000    0.000000    4.233416
Ne    0.000000    0.000000    0.000000
           2
 Time =    1562.0000000000000     
Ne    0.000000    0.000000    4.233416
Ne    0.000000    0.000000    0.000000
           2
 Time =    1563.0000000000000     
Ne    0.000000    0.000000    4.233416
Ne    0.000000    0.000000    0.000000
           2
 Time =    1564.0000000000000     
Ne    0.000000    0.000000    4.233416
Ne    0.000000    0.000000    0.000000
           2
 Time =    1565.0000000000000     
Ne    0.000000    0.000000    4.233416
Ne    0.000000    0.000000    0.000000
           2
 Time =    1566.0000000000000     
Ne    0.000000    0.000000    4.233416
Ne    0.000000    0.000000    0.000000
           2
 Time =    1567.0000000000000     
Ne    0.000000    0.000000    4.233416
Ne    0.000000    0.000000    0.000000
           2
 Time =    1568.0000000000000     
Ne    0.000000    0.000000    4.233416
Ne    0.000000    0.000000    0.000000
           2
 Time =    1569.0000000000000     
Ne    0.000000    0.000000    4.233416
Ne    0.000000    0.000000    0.000000
           2
 Time =    1570.0000000000000     
Ne    0.000000    0.000000    4.233416
Ne    0.000000    0.000000    0.000000
           2
 Time =    1571.0000000000000     
Ne    0.000000    0.000000    4.233416
Ne    0.000000    0.000000    0.000000
           2
 Time =    1572.0000000000000     
Ne    0.000000    0.000000    4.233416
Ne    0.000000    0.000000    0.000000
           2
 Time =    1573.0000000000000     
Ne    0.000000    0.000000    4.233416
Ne    0.000000    0.000000    0.000000
           2
 Time =    1574.0000000000000     
Ne    0.000000    0.000000    4.233416
Ne    0.000000    0.000000    0.000000
           2
 Time =    1575.0000000000000     
Ne    0.000000    0.000000    4.233416
Ne    0.000000    0.000000    0.000000
           2
 Time =    1576.0000000000000     
Ne    0.000000    0.000000    4.233416
Ne    0.000000    0.000000    0.000000
           2
 Time =    1577.0000000000000     
Ne    0.000000    0.000000    4.233416
Ne    0.000000    0.000000    0.000000
           2
 Time =    1578.0000000000000     
Ne    0.000000    0.000000    4.233416
Ne    0.000000    0.000000    0.000000
           2
 Time =    1579.0000000000000     
Ne    0.000000    0.000000    4.233416
Ne    0.000000    0.000000    0.000000
           2
 Time =    1580.0000000000000     
Ne    0.000000    0.000000    4.233416
Ne    0.000000    0.000000    0.000000
           2
 Time =    1581.0000000000000     
Ne    0.000000    0.000000    4.233416
Ne    0.000000    0.000000    0.000000
           2
 Time =    1582.0000000000000     
Ne    0.000000    0.000000    4.233416
Ne    0.000000    0.000000    0.000000
           2
 Time =    1583.0000000000000     
Ne    0.000000    0.000000    4.233416
Ne    0.000000    0.000000    0.000000
           2
 Time =    1584.0000000000000     
Ne    0.000000    0.000000    4.233416
Ne    0.000000    0.000000    0.000000
           2
 Time =    1585.0000000000000     
Ne    0.000000    0.000000    4.233416
Ne    0.000000    0.000000    0.000000
           2
 Time =    1586.0000000000000     
Ne    0.000000    0.000000    4.233416
Ne    0.000000    0.000000    0.000000
           2
 Time =    1587.0000000000000     
Ne    0.000000    0.000000    4.233416
Ne    0.000000    0.000000    0.000000
           2
 Time =    1588.0000000000000     
Ne    0.000000    0.000000    4.233416
Ne    0.000000    0.000000    0.000000
           2
 Time =    1589.0000000000000     
Ne    0.000000    0.000000    4.233416
Ne    0.000000    0.000000    0.000000
           2
 Time =    1590.0000000000000     
Ne    0.000000    0.000000    4.233416
Ne    0.000000    0.000000    0.000000
           2
 Time =    1591.0000000000000     
Ne    0.000000    0.000000    4.233416
Ne    0.000000    0.000000    0.000000
           2
 Time =    1592.0000000000000     
Ne    0.000000    0.000000    4.233416
Ne    0.000000    0.000000    0.000000
           2
 Time =    1593.0000000000000     
Ne    0.000000    0.000000    4.233416
Ne    0.000000    0.000000    0.000000
           2
 Time =    1594.0000000000000     
Ne    0.000000    0.000000    4.233416
Ne    0.000000    0.000000    0.000000
           2
 Time =    1595.0000000000000     
Ne    0.000000    0.000000    4.233416
Ne    0.000000    0.000000    0.000000
           2
 Time =    1596.0000000000000     
Ne    0.000000    0.000000    4.233416
Ne    0.000000    0.000000    0.000000
           2
 Time =    1597.0000000000000     
Ne    0.000000    0.000000    4.233416
Ne    0.000000    0.000000    0.000000
           2
 Time =    1598.0000000000000     
Ne    0.000000    0.000000    4.233416
Ne    0.000000    0.000000    0.000000
           2
 Time =    1599.0000000000000     
Ne    0.000000    0.000000    4.233416
Ne    0.000000    0.000000    0.000000
           2
 Time =    1600.0000000000000     
Ne    0.000000    0.000000    4.233416
Ne    0.000000    0.000000    0.000000
           2
 Time =    1601.0000000000000     
Ne    0.000000    0.000000    4.233416
Ne    0.000000    0.000000    0.000000
           2
 Time =    1602.0000000000000     
Ne    0.000000    0.000000    4.233416
Ne    0.000000    0.000000    0.000000
           2
 Time =    1603.0000000000000     
Ne    0.000000    0.000000    4.233416
Ne    0.000000    0.000000    0.000000
           2
 Time =    1604.0000000000000     
Ne    0.000000    0.000000    4.233416
Ne    0.000000    0.000000    0.000000
           2
 Time =    1605.0000000000000     
Ne    0.000000    0.000000    4.233416
Ne    0.000000    0.000000    0.000000
           2
 Time =    1606.0000000000000     
Ne    0.000000    0.000000    4.233416
Ne    0.000000    0.000000    0.000000
           2
 Time =    1607.0000000000000     
Ne    0.000000    0.000000    4.233416
Ne    0.000000    0.000000    0.000000
           2
 Time =    1608.0000000000000     
Ne    0.000000    0.000000    4.233416
Ne    0.000000    0.000000    0.000000
           2
 Time =    1609.0000000000000     
Ne    0.000000    0.000000    4.233416
Ne    0.000000    0.000000    0.000000
           2
 Time =    1610.0000000000000     
Ne    0.000000    0.000000    4.233416
Ne    0.000000    0.000000    0.000000
           2
 Time =    1611.0000000000000     
Ne    0.000000    0.000000    4.233416
Ne    0.000000    0.000000    0.000000
           2
 Time =    1612.0000000000000     
Ne    0.000000    0.000000    4.233416
Ne    0.000000    0.000000    0.000000
           2
 Time =    1613.0000000000000     
Ne    0.000000    0.000000    4.233416
Ne    0.000000    0.000000    0.000000
           2
 Time =    1614.0000000000000     
Ne    0.000000    0.000000    4.233416
Ne    0.000000    0.000000    0.000000
           2
 Time =    1615.0000000000000     
Ne    0.000000    0.000000    4.233416
Ne    0.000000    0.000000    0.000000
           2
 Time =    1616.0000000000000     
Ne    0.000000    0.000000    4.233416
Ne    0.000000    0.000000    0.000000
           2
 Time =    1617.0000000000000     
Ne    0.000000    0.000000    4.233416
Ne    0.000000    0.000000    0.000000
           2
 Time =    1618.0000000000000     
Ne    0.000000    0.000000    4.233416
Ne    0.000000    0.000000    0.000000
           2
 Time =    1619.0000000000000     
Ne    0.000000    0.000000    4.233416
Ne    0.000000    0.000000    0.000000
           2
 Time =    1620.0000000000000     
Ne    0.000000    0.000000    4.233416
Ne    0.000000    0.000000    0.000000
           2
 Time =    1621.0000000000000     
Ne    0.000000    0.000000    4.233416
Ne    0.000000    0.000000    0.000000
           2
 Time =    1622.0000000000000     
Ne    0.000000    0.000000    4.233416
Ne    0.000000    0.000000    0.000000
           2
 Time =    1623.0000000000000     
Ne    0.000000    0.000000    4.233416
Ne    0.000000    0.000000    0.000000
           2
 Time =    1624.0000000000000     
Ne    0.000000    0.000000    4.233416
Ne    0.000000    0.000000    0.000000
           2
 Time =    1625.0000000000000     
Ne    0.000000    0.000000    4.233416
Ne    0.000000    0.000000    0.000000
           2
 Time =    1626.0000000000000     
Ne    0.000000    0.000000    4.233416
Ne    0.000000    0.000000    0.000000
           2
 Time =    1627.0000000000000     
Ne    0.000000    0.000000    4.233416
Ne    0.000000    0.000000    0.000000
           2
 Time =    1628.0000000000000     
Ne    0.000000    0.000000    4.233416
Ne    0.000000    0.000000    0.000000
           2
 Time =    1629.0000000000000     
Ne    0.000000    0.000000    4.233416
Ne    0.000000    0.000000    0.000000
           2
 Time =    1630.0000000000000     
Ne    0.000000    0.000000    4.233416
Ne    0.000000    0.000000    0.000000
           2
 Time =    1631.0000000000000     
Ne    0.000000    0.000000    4.233416
Ne    0.000000    0.000000    0.000000
           2
 Time =    1632.0000000000000     
Ne    0.000000    0.000000    4.233416
Ne    0.000000    0.000000    0.000000
           2
 Time =    1633.0000000000000     
Ne    0.000000    0.000000    4.233416
Ne    0.000000    0.000000    0.000000
           2
 Time =    1634.0000000000000     
Ne    0.000000    0.000000    4.233416
Ne    0.000000    0.000000    0.000000
           2
 Time =    1635.0000000000000     
Ne    0.000000    0.000000    4.233416
Ne    0.000000    0.000000    0.000000
           2
 Time =    1636.0000000000000     
Ne    0.000000    0.000000    4.233416
Ne    0.000000    0.000000    0.000000
           2
 Time =    1637.0000000000000     
Ne    0.000000    0.000000    4.233416
Ne    0.000000    0.000000    0.000000
           2
 Time =    1638.0000000000000     
Ne    0.000000    0.000000    4.233416
Ne    0.000000    0.000000    0.000000
           2
 Time =    1639.0000000000000     
Ne    0.000000    0.000000    4.233416
Ne    0.000000    0.000000    0.000000
           2
 Time =    1640.0000000000000     
Ne    0.000000    0.000000    4.233416
Ne    0.000000    0.000000    0.000000
           2
 Time =    1641.0000000000000     
Ne    0.000000    0.000000    4.233416
Ne    0.000000    0.000000    0.000000
           2
 Time =    1642.0000000000000     
Ne    0.000000    0.000000    4.233416
Ne    0.000000    0.000000    0.000000
           2
 Time =    1643.0000000000000     
Ne    0.000000    0.000000    4.233416
Ne    0.000000    0.000000    0.000000
           2
 Time =    1644.0000000000000     
Ne    0.000000    0.000000    4.233416
Ne    0.000000    0.000000    0.000000
           2
 Time =    1645.0000000000000     
Ne    0.000000    0.000000    4.233416
Ne    0.000000    0.000000    0.000000
           2
 Time =    1646.0000000000000     
Ne    0.000000    0.000000    4.233416
Ne    0.000000    0.000000    0.000000
           2
 Time =    1647.0000000000000     
Ne    0.000000    0.000000    4.233416
Ne    0.000000    0.000000    0.000000
           2
 Time =    1648.0000000000000     
Ne    0.000000    0.000000    4.233416
Ne    0.000000    0.000000    0.000000
           2
 Time =    1649.0000000000000     
Ne    0.000000    0.000000    4.233416
Ne    0.000000    0.000000    0.000000
           2
 Time =    1650.0000000000000     
Ne    0.000000    0.000000    4.233416
Ne    0.000000    0.000000    0.000000
           2
 Time =    1651.0000000000000     
Ne    0.000000    0.000000    4.233416
Ne    0.000000    0.000000    0.000000
           2
 Time =    1652.0000000000000     
Ne    0.000000    0.000000    4.233416
Ne    0.000000    0.000000    0.000000
           2
 Time =    1653.0000000000000     
Ne    0.000000    0.000000    4.233416
Ne    0.000000    0.000000    0.000000
           2
 Time =    1654.0000000000000     
Ne    0.000000    0.000000    4.233416
Ne    0.000000    0.000000    0.000000
           2
 Time =    1655.0000000000000     
Ne    0.000000    0.000000    4.233416
Ne    0.000000    0.000000    0.000000
           2
 Time =    1656.0000000000000     
Ne    0.000000    0.000000    4.233416
Ne    0.000000    0.000000    0.000000
           2
 Time =    1657.0000000000000     
Ne    0.000000    0.000000    4.233416
Ne    0.000000    0.000000    0.000000
           2
 Time =    1658.0000000000000     
Ne    0.000000    0.000000    4.233416
Ne    0.000000    0.000000    0.000000
           2
 Time =    1659.0000000000000     
Ne    0.000000    0.000000    4.233416
Ne    0.000000    0.000000    0.000000
           2
 Time =    1660.0000000000000     
Ne    0.000000    0.000000    4.233416
Ne    0.000000    0.000000    0.000000
           2
 Time =    1661.0000000000000     
Ne    0.000000    0.000000    4.233416
Ne    0.000000    0.000000    0.000000
           2
 Time =    1662.0000000000000     
Ne    0.000000    0.000000    4.233416
Ne    0.000000    0.000000    0.000000
           2
 Time =    1663.0000000000000     
Ne    0.000000    0.000000    4.233416
Ne    0.000000    0.000000    0.000000
           2
 Time =    1664.0000000000000     
Ne    0.000000    0.000000    4.233416
Ne    0.000000    0.000000    0.000000
           2
 Time =    1665.0000000000000     
Ne    0.000000    0.000000    4.233416
Ne    0.000000    0.000000    0.000000
           2
 Time =    1666.0000000000000     
Ne    0.000000    0.000000    4.233416
Ne    0.000000    0.000000    0.000000
           2
 Time =    1667.0000000000000     
Ne    0.000000    0.000000    4.233416
Ne    0.000000    0.000000    0.000000
           2
 Time =    1668.0000000000000     
Ne    0.000000    0.000000    4.233416
Ne    0.000000    0.000000    0.000000
           2
 Time =    1669.0000000000000     
Ne    0.000000    0.000000    4.233416
Ne    0.000000    0.000000    0.000000
           2
 Time =    1670.0000000000000     
Ne    0.000000    0.000000    4.233416
Ne    0.000000    0.000000    0.000000
           2
 Time =    1671.0000000000000     
Ne    0.000000    0.000000    4.233416
Ne    0.000000    0.000000    0.000000
           2
 Time =    1672.0000000000000     
Ne    0.000000    0.000000    4.233416
Ne    0.000000    0.000000    0.000000
           2
 Time =    1673.0000000000000     
Ne    0.000000    0.000000    4.233416
Ne    0.000000    0.000000    0.000000
           2
 Time =    1674.0000000000000     
Ne    0.000000    0.000000    4.233416
Ne    0.000000    0.000000    0.000000
           2
 Time =    1675.0000000000000     
Ne    0.000000    0.000000    4.233416
Ne    0.000000    0.000000    0.000000
           2
 Time =    1676.0000000000000     
Ne    0.000000    0.000000    4.233416
Ne    0.000000    0.000000    0.000000
           2
 Time =    1677.0000000000000     
Ne    0.000000    0.000000    4.233416
Ne    0.000000    0.000000    0.000000
           2
 Time =    1678.0000000000000     
Ne    0.000000    0.000000    4.233416
Ne    0.000000    0.000000    0.000000
           2
 Time =    1679.0000000000000     
Ne    0.000000    0.000000    4.233416
Ne    0.000000    0.000000    0.000000
           2
 Time =    1680.0000000000000     
Ne    0.000000    0.000000    4.233416
Ne    0.000000    0.000000    0.000000
           2
 Time =    1681.0000000000000     
Ne    0.000000    0.000000    4.233416
Ne    0.000000    0.000000    0.000000
           2
 Time =    1682.0000000000000     
Ne    0.000000    0.000000    4.233416
Ne    0.000000    0.000000    0.000000
           2
 Time =    1683.0000000000000     
Ne    0.000000    0.000000    4.233416
Ne    0.000000    0.000000    0.000000
           2
 Time =    1684.0000000000000     
Ne    0.000000    0.000000    4.233416
Ne    0.000000    0.000000    0.000000
           2
 Time =    1685.0000000000000     
Ne    0.000000    0.000000    4.233416
Ne    0.000000    0.000000    0.000000
           2
 Time =    1686.0000000000000     
Ne    0.000000    0.000000    4.233416
Ne    0.000000    0.000000    0.000000
           2
 Time =    1687.0000000000000     
Ne    0.000000    0.000000    4.233416
Ne    0.000000    0.000000    0.000000
           2
 Time =    1688.0000000000000     
Ne    0.000000    0.000000    4.233416
Ne    0.000000    0.000000    0.000000
           2
 Time =    1689.0000000000000     
Ne    0.000000    0.000000    4.233416
Ne    0.000000    0.000000    0.000000
           2
 Time =    1690.0000000000000     
Ne    0.000000    0.000000    4.233416
Ne    0.000000    0.000000    0.000000
           2
 Time =    1691.0000000000000     
Ne    0.000000    0.000000    4.233416
Ne    0.000000    0.000000    0.000000
           2
 Time =    1692.0000000000000     
Ne    0.000000    0.000000    4.233416
Ne    0.000000    0.000000    0.000000
           2
 Time =    1693.0000000000000     
Ne    0.000000    0.000000    4.233416
Ne    0.000000    0.000000    0.000000
           2
 Time =    1694.0000000000000     
Ne    0.000000    0.000000    4.233416
Ne    0.000000    0.000000    0.000000
           2
 Time =    1695.0000000000000     
Ne    0.000000    0.000000    4.233416
Ne    0.000000    0.000000    0.000000
           2
 Time =    1696.0000000000000     
Ne    0.000000    0.000000    4.233416
Ne    0.000000    0.000000    0.000000
           2
 Time =    1697.0000000000000     
Ne    0.000000    0.000000    4.233416
Ne    0.000000    0.000000    0.000000
           2
 Time =    1698.0000000000000     
Ne    0.000000    0.000000    4.233416
Ne    0.000000    0.000000    0.000000
           2
 Time =    1699.0000000000000     
Ne    0.000000    0.000000    4.233416
Ne    0.000000    0.000000    0.000000
           2
 Time =    1700.0000000000000     
Ne    0.000000    0.000000    4.233416
Ne    0.000000    0.000000    0.000000
           2
 Time =    1701.0000000000000     
Ne    0.000000    0.000000    4.233416
Ne    0.000000    0.000000    0.000000
           2
 Time =    1702.0000000000000     
Ne    0.000000    0.000000    4.233416
Ne    0.000000    0.000000    0.000000
           2
 Time =    1703.0000000000000     
Ne    0.000000    0.000000    4.233416
Ne    0.000000    0.000000    0.000000
           2
 Time =    1704.0000000000000     
Ne    0.000000    0.000000    4.233416
Ne    0.000000    0.000000    0.000000
           2
 Time =    1705.0000000000000     
Ne    0.000000    0.000000    4.233416
Ne    0.000000    0.000000    0.000000
           2
 Time =    1706.0000000000000     
Ne    0.000000    0.000000    4.233416
Ne    0.000000    0.000000    0.000000
           2
 Time =    1707.0000000000000     
Ne    0.000000    0.000000    4.233416
Ne    0.000000    0.000000    0.000000
           2
 Time =    1708.0000000000000     
Ne    0.000000    0.000000    4.233416
Ne    0.000000    0.000000    0.000000
           2
 Time =    1709.0000000000000     
Ne    0.000000    0.000000    4.233416
Ne    0.000000    0.000000    0.000000
           2
 Time =    1710.0000000000000     
Ne    0.000000    0.000000    4.233416
Ne    0.000000    0.000000    0.000000
           2
 Time =    1711.0000000000000     
Ne    0.000000    0.000000    4.233416
Ne    0.000000    0.000000    0.000000
           2
 Time =    1712.0000000000000     
Ne    0.000000    0.000000    4.233416
Ne    0.000000    0.000000    0.000000
           2
 Time =    1713.0000000000000     
Ne    0.000000    0.000000    4.233416
Ne    0.000000    0.000000    0.000000
           2
 Time =    1714.0000000000000     
Ne    0.000000    0.000000    4.233416
Ne    0.000000    0.000000    0.000000
           2
 Time =    1715.0000000000000     
Ne    0.000000    0.000000    4.233416
Ne    0.000000    0.000000    0.000000
           2
 Time =    1716.0000000000000     
Ne    0.000000    0.000000    4.233416
Ne    0.000000    0.000000    0.000000
           2
 Time =    1717.0000000000000     
Ne    0.000000    0.000000    4.233416
Ne    0.000000    0.000000    0.000000
           2
 Time =    1718.0000000000000     
Ne    0.000000    0.000000    4.233416
Ne    0.000000    0.000000    0.000000
           2
 Time =    1719.0000000000000     
Ne    0.000000    0.000000    4.233416
Ne    0.000000    0.000000    0.000000
           2
 Time =    1720.0000000000000     
Ne    0.000000    0.000000    4.233416
Ne    0.000000    0.000000    0.000000
           2
 Time =    1721.0000000000000     
Ne    0.000000    0.000000    4.233416
Ne    0.000000    0.000000    0.000000
           2
 Time =    1722.0000000000000     
Ne    0.000000    0.000000    4.233416
Ne    0.000000    0.000000    0.000000
           2
 Time =    1723.0000000000000     
Ne    0.000000    0.000000    4.233416
Ne    0.000000    0.000000    0.000000
           2
 Time =    1724.0000000000000     
Ne    0.000000    0.000000    4.233416
Ne    0.000000    0.000000    0.000000
           2
 Time =    1725.0000000000000     
Ne    0.000000    0.000000    4.233416
Ne    0.000000    0.000000    0.000000
           2
 Time =    1726.0000000000000     
Ne    0.000000    0.000000    4.233416
Ne    0.000000    0.000000    0.000000
           2
 Time =    1727.0000000000000     
Ne    0.000000    0.000000    4.233416
Ne    0.000000    0.000000    0.000000
           2
 Time =    1728.0000000000000     
Ne    0.000000    0.000000    4.233416
Ne    0.000000    0.000000    0.000000
           2
 Time =    1729.0000000000000     
Ne    0.000000    0.000000    4.233416
Ne    0.000000    0.000000    0.000000
           2
 Time =    1730.0000000000000     
Ne    0.000000    0.000000    4.233416
Ne    0.000000    0.000000    0.000000
           2
 Time =    1731.0000000000000     
Ne    0.000000    0.000000    4.233416
Ne    0.000000    0.000000    0.000000
           2
 Time =    1732.0000000000000     
Ne    0.000000    0.000000    4.233416
Ne    0.000000    0.000000    0.000000
           2
 Time =    1733.0000000000000     
Ne    0.000000    0.000000    4.233416
Ne    0.000000    0.000000    0.000000
           2
 Time =    1734.0000000000000     
Ne    0.000000    0.000000    4.233416
Ne    0.000000    0.000000    0.000000
           2
 Time =    1735.0000000000000     
Ne    0.000000    0.000000    4.233416
Ne    0.000000    0.000000    0.000000
           2
 Time =    1736.0000000000000     
Ne    0.000000    0.000000    4.233416
Ne    0.000000    0.000000    0.000000
           2
 Time =    1737.0000000000000     
Ne    0.000000    0.000000    4.233416
Ne    0.000000    0.000000    0.000000
           2
 Time =    1738.0000000000000     
Ne    0.000000    0.000000    4.233416
Ne    0.000000    0.000000    0.000000
           2
 Time =    1739.0000000000000     
Ne    0.000000    0.000000    4.233416
Ne    0.000000    0.000000    0.000000
           2
 Time =    1740.0000000000000     
Ne    0.000000    0.000000    4.233416
Ne    0.000000    0.000000    0.000000
           2
 Time =    1741.0000000000000     
Ne    0.000000    0.000000    4.233416
Ne    0.000000    0.000000    0.000000
           2
 Time =    1742.0000000000000     
Ne    0.000000    0.000000    4.233416
Ne    0.000000    0.000000    0.000000
           2
 Time =    1743.0000000000000     
Ne    0.000000    0.000000    4.233416
Ne    0.000000    0.000000    0.000000
           2
 Time =    1744.0000000000000     
Ne    0.000000    0.000000    4.233416
Ne    0.000000    0.000000    0.000000
           2
 Time =    1745.0000000000000     
Ne    0.000000    0.000000    4.233416
Ne    0.000000    0.000000    0.000000
           2
 Time =    1746.0000000000000     
Ne    0.000000    0.000000    4.233416
Ne    0.000000    0.000000    0.000000
           2
 Time =    1747.0000000000000     
Ne    0.000000    0.000000    4.233416
Ne    0.000000    0.000000    0.000000
           2
 Time =    1748.0000000000000     
Ne    0.000000    0.000000    4.233416
Ne    0.000000    0.000000    0.000000
           2
 Time =    1749.0000000000000     
Ne    0.000000    0.000000    4.233416
Ne    0.000000    0.000000    0.000000
           2
 Time =    1750.0000000000000     
Ne    0.000000    0.000000    4.233416
Ne    0.000000    0.000000    0.000000
           2
 Time =    1751.0000000000000     
Ne    0.000000    0.000000    4.233416
Ne    0.000000    0.000000    0.000000
           2
 Time =    1752.0000000000000     
Ne    0.000000    0.000000    4.233416
Ne    0.000000    0.000000    0.000000
           2
 Time =    1753.0000000000000     
Ne    0.000000    0.000000    4.233416
Ne    0.000000    0.000000    0.000000
           2
 Time =    1754.0000000000000     
Ne    0.000000    0.000000    4.233416
Ne    0.000000    0.000000    0.000000
           2
 Time =    1755.0000000000000     
Ne    0.000000    0.000000    4.233416
Ne    0.000000    0.000000    0.000000
           2
 Time =    1756.0000000000000     
Ne    0.000000    0.000000    4.233416
Ne    0.000000    0.000000    0.000000
           2
 Time =    1757.0000000000000     
Ne    0.000000    0.000000    4.233416
Ne    0.000000    0.000000    0.000000
           2
 Time =    1758.0000000000000     
Ne    0.000000    0.000000    4.233416
Ne    0.000000    0.000000    0.000000
           2
 Time =    1759.0000000000000     
Ne    0.000000    0.000000    4.233416
Ne    0.000000    0.000000    0.000000
           2
 Time =    1760.0000000000000     
Ne    0.000000    0.000000    4.233416
Ne    0.000000    0.000000    0.000000
           2
 Time =    1761.0000000000000     
Ne    0.000000    0.000000    4.233416
Ne    0.000000    0.000000    0.000000
           2
 Time =    1762.0000000000000     
Ne    0.000000    0.000000    4.233416
Ne    0.000000    0.000000    0.000000
           2
 Time =    1763.0000000000000     
Ne    0.000000    0.000000    4.233416
Ne    0.000000    0.000000    0.000000
           2
 Time =    1764.0000000000000     
Ne    0.000000    0.000000    4.233416
Ne    0.000000    0.000000    0.000000
           2
 Time =    1765.0000000000000     
Ne    0.000000    0.000000    4.233416
Ne    0.000000    0.000000    0.000000
           2
 Time =    1766.0000000000000     
Ne    0.000000    0.000000    4.233416
Ne    0.000000    0.000000    0.000000
           2
 Time =    1767.0000000000000     
Ne    0.000000    0.000000    4.233416
Ne    0.000000    0.000000    0.000000
           2
 Time =    1768.0000000000000     
Ne    0.000000    0.000000    4.233416
Ne    0.000000    0.000000    0.000000
           2
 Time =    1769.0000000000000     
Ne    0.000000    0.000000    4.233416
Ne    0.000000    0.000000    0.000000
           2
 Time =    1770.0000000000000     
Ne    0.000000    0.000000    4.233416
Ne    0.000000    0.000000    0.000000
           2
 Time =    1771.0000000000000     
Ne    0.000000    0.000000    4.233416
Ne    0.000000    0.000000    0.000000
           2
 Time =    1772.0000000000000     
Ne    0.000000    0.000000    4.233416
Ne    0.000000    0.000000    0.000000
           2
 Time =    1773.0000000000000     
Ne    0.000000    0.000000    4.233416
Ne    0.000000    0.000000    0.000000
           2
 Time =    1774.0000000000000     
Ne    0.000000    0.000000    4.233416
Ne    0.000000    0.000000    0.000000
           2
 Time =    1775.0000000000000     
Ne    0.000000    0.000000    4.233416
Ne    0.000000    0.000000    0.000000
           2
 Time =    1776.0000000000000     
Ne    0.000000    0.000000    4.233416
Ne    0.000000    0.000000    0.000000
           2
 Time =    1777.0000000000000     
Ne    0.000000    0.000000    4.233416
Ne    0.000000    0.000000    0.000000
           2
 Time =    1778.0000000000000     
Ne    0.000000    0.000000    4.233416
Ne    0.000000    0.000000    0.000000
           2
 Time =    1779.0000000000000     
Ne    0.000000    0.000000    4.233416
Ne    0.000000    0.000000    0.000000
           2
 Time =    1780.0000000000000     
Ne    0.000000    0.000000    4.233416
Ne    0.000000    0.000000    0.000000
           2
 Time =    1781.0000000000000     
Ne    0.000000    0.000000    4.233416
Ne    0.000000    0.000000    0.000000
           2
 Time =    1782.0000000000000     
Ne    0.000000    0.000000    4.233416
Ne    0.000000    0.000000    0.000000
           2
 Time =    1783.0000000000000     
Ne    0.000000    0.000000    4.233416
Ne    0.000000    0.000000    0.000000
           2
 Time =    1784.0000000000000     
Ne    0.000000    0.000000    4.233416
Ne    0.000000    0.000000    0.000000
           2
 Time =    1785.0000000000000     
Ne    0.000000    0.000000    4.233416
Ne    0.000000    0.000000    0.000000
           2
 Time =    1786.0000000000000     
Ne    0.000000    0.000000    4.233416
Ne    0.000000    0.000000    0.000000
           2
 Time =    1787.0000000000000     
Ne    0.000000    0.000000    4.233416
Ne    0.000000    0.000000    0.000000
           2
 Time =    1788.0000000000000     
Ne    0.000000    0.000000    4.233416
Ne    0.000000    0.000000    0.000000
           2
 Time =    1789.0000000000000     
Ne    0.000000    0.000000    4.233416
Ne    0.000000    0.000000    0.000000
           2
 Time =    1790.0000000000000     
Ne    0.000000    0.000000    4.233416
Ne    0.000000    0.000000    0.000000
           2
 Time =    1791.0000000000000     
Ne    0.000000    0.000000    4.233416
Ne    0.000000    0.000000    0.000000
           2
 Time =    1792.0000000000000     
Ne    0.000000    0.000000    4.233416
Ne    0.000000    0.000000    0.000000
           2
 Time =    1793.0000000000000     
Ne    0.000000    0.000000    4.233416
Ne    0.000000    0.000000    0.000000
           2
 Time =    1794.0000000000000     
Ne    0.000000    0.000000    4.233416
Ne    0.000000    0.000000    0.000000
           2
 Time =    1795.0000000000000     
Ne    0.000000    0.000000    4.233416
Ne    0.000000    0.000000    0.000000
           2
 Time =    1796.0000000000000     
Ne    0.000000    0.000000    4.233416
Ne    0.000000    0.000000    0.000000
           2
 Time =    1797.0000000000000     
Ne    0.000000    0.000000    4.233416
Ne    0.000000    0.000000    0.000000
           2
 Time =    1798.0000000000000     
Ne    0.000000    0.000000    4.233416
Ne    0.000000    0.000000    0.000000
           2
 Time =    1799.0000000000000     
Ne    0.000000    0.000000    4.233416
Ne    0.000000    0.000000    0.000000
           2
 Time =    1800.0000000000000     
Ne    0.000000    0.000000    4.233416
Ne    0.000000    0.000000    0.000000
           2
 Time =    1801.0000000000000     
Ne    0.000000    0.000000    4.233416
Ne    0.000000    0.000000    0.000000
           2
 Time =    1802.0000000000000     
Ne    0.000000    0.000000    4.233416
Ne    0.000000    0.000000    0.000000
           2
 Time =    1803.0000000000000     
Ne    0.000000    0.000000    4.233416
Ne    0.000000    0.000000    0.000000
           2
 Time =    1804.0000000000000     
Ne    0.000000    0.000000    4.233416
Ne    0.000000    0.000000    0.000000
           2
 Time =    1805.0000000000000     
Ne    0.000000    0.000000    4.233416
Ne    0.000000    0.000000    0.000000
           2
 Time =    1806.0000000000000     
Ne    0.000000    0.000000    4.233416
Ne    0.000000    0.000000    0.000000
           2
 Time =    1807.0000000000000     
Ne    0.000000    0.000000    4.233416
Ne    0.000000    0.000000    0.000000
           2
 Time =    1808.0000000000000     
Ne    0.000000    0.000000    4.233416
Ne    0.000000    0.000000    0.000000
           2
 Time =    1809.0000000000000     
Ne    0.000000    0.000000    4.233416
Ne    0.000000    0.000000    0.000000
           2
 Time =    1810.0000000000000     
Ne    0.000000    0.000000    4.233416
Ne    0.000000    0.000000    0.000000
           2
 Time =    1811.0000000000000     
Ne    0.000000    0.000000    4.233416
Ne    0.000000    0.000000    0.000000
           2
 Time =    1812.0000000000000     
Ne    0.000000    0.000000    4.233416
Ne    0.000000    0.000000    0.000000
           2
 Time =    1813.0000000000000     
Ne    0.000000    0.000000    4.233416
Ne    0.000000    0.000000    0.000000
           2
 Time =    1814.0000000000000     
Ne    0.000000    0.000000    4.233416
Ne    0.000000    0.000000    0.000000
           2
 Time =    1815.0000000000000     
Ne    0.000000    0.000000    4.233416
Ne    0.000000    0.000000    0.000000
           2
 Time =    1816.0000000000000     
Ne    0.000000    0.000000    4.233416
Ne    0.000000    0.000000    0.000000
           2
 Time =    1817.0000000000000     
Ne    0.000000    0.000000    4.233416
Ne    0.000000    0.000000    0.000000
           2
 Time =    1818.0000000000000     
Ne    0.000000    0.000000    4.233416
Ne    0.000000    0.000000    0.000000
           2
 Time =    1819.0000000000000     
Ne    0.000000    0.000000    4.233416
Ne    0.000000    0.000000    0.000000
           2
 Time =    1820.0000000000000     
Ne    0.000000    0.000000    4.233416
Ne    0.000000    0.000000    0.000000
           2
 Time =    1821.0000000000000     
Ne    0.000000    0.000000    4.233416
Ne    0.000000    0.000000    0.000000
           2
 Time =    1822.0000000000000     
Ne    0.000000    0.000000    4.233416
Ne    0.000000    0.000000    0.000000
           2
 Time =    1823.0000000000000     
Ne    0.000000    0.000000    4.233416
Ne    0.000000    0.000000    0.000000
           2
 Time =    1824.0000000000000     
Ne    0.000000    0.000000    4.233416
Ne    0.000000    0.000000    0.000000
           2
 Time =    1825.0000000000000     
Ne    0.000000    0.000000    4.233416
Ne    0.000000    0.000000    0.000000
           2
 Time =    1826.0000000000000     
Ne    0.000000    0.000000    4.233416
Ne    0.000000    0.000000    0.000000
           2
 Time =    1827.0000000000000     
Ne    0.000000    0.000000    4.233416
Ne    0.000000    0.000000    0.000000
           2
 Time =    1828.0000000000000     
Ne    0.000000    0.000000    4.233416
Ne    0.000000    0.000000    0.000000
           2
 Time =    1829.0000000000000     
Ne    0.000000    0.000000    4.233416
Ne    0.000000    0.000000    0.000000
           2
 Time =    1830.0000000000000     
Ne    0.000000    0.000000    4.233416
Ne    0.000000    0.000000    0.000000
           2
 Time =    1831.0000000000000     
Ne    0.000000    0.000000    4.233416
Ne    0.000000    0.000000    0.000000
           2
 Time =    1832.0000000000000     
Ne    0.000000    0.000000    4.233416
Ne    0.000000    0.000000    0.000000
           2
 Time =    1833.0000000000000     
Ne    0.000000    0.000000    4.233416
Ne    0.000000    0.000000    0.000000
           2
 Time =    1834.0000000000000     
Ne    0.000000    0.000000    4.233416
Ne    0.000000    0.000000    0.000000
           2
 Time =    1835.0000000000000     
Ne    0.000000    0.000000    4.233416
Ne    0.000000    0.000000    0.000000
           2
 Time =    1836.0000000000000     
Ne    0.000000    0.000000    4.233416
Ne    0.000000    0.000000    0.000000
           2
 Time =    1837.0000000000000     
Ne    0.000000    0.000000    4.233416
Ne    0.000000    0.000000    0.000000
           2
 Time =    1838.0000000000000     
Ne    0.000000    0.000000    4.233416
Ne    0.000000    0.000000    0.000000
           2
 Time =    1839.0000000000000     
Ne    0.000000    0.000000    4.233416
Ne    0.000000    0.000000    0.000000
           2
 Time =    1840.0000000000000     
Ne    0.000000    0.000000    4.233416
Ne    0.000000    0.000000    0.000000
           2
 Time =    1841.0000000000000     
Ne    0.000000    0.000000    4.233416
Ne    0.000000    0.000000    0.000000
           2
 Time =    1842.0000000000000     
Ne    0.000000    0.000000    4.233416
Ne    0.000000    0.000000    0.000000
           2
 Time =    1843.0000000000000     
Ne    0.000000    0.000000    4.233416
Ne    0.000000    0.000000    0.000000
           2
 Time =    1844.0000000000000     
Ne    0.000000    0.000000    4.233416
Ne    0.000000    0.000000    0.000000
           2
 Time =    1845.0000000000000     
Ne    0.000000    0.000000    4.233416
Ne    0.000000    0.000000    0.000000
           2
 Time =    1846.0000000000000     
Ne    0.000000    0.000000    4.233416
Ne    0.000000    0.000000    0.000000
           2
 Time =    1847.0000000000000     
Ne    0.000000    0.000000    4.233416
Ne    0.000000    0.000000    0.000000
           2
 Time =    1848.0000000000000     
Ne    0.000000    0.000000    4.233416
Ne    0.000000    0.000000    0.000000
           2
 Time =    1849.0000000000000     
Ne    0.000000    0.000000    4.233416
Ne    0.000000    0.000000    0.000000
           2
 Time =    1850.0000000000000     
Ne    0.000000    0.000000    4.233416
Ne    0.000000    0.000000    0.000000
           2
 Time =    1851.0000000000000     
Ne    0.000000    0.000000    4.233416
Ne    0.000000    0.000000    0.000000
           2
 Time =    1852.0000000000000     
Ne    0.000000    0.000000    4.233416
Ne    0.000000    0.000000    0.000000
           2
 Time =    1853.0000000000000     
Ne    0.000000    0.000000    4.233416
Ne    0.000000    0.000000    0.000000
           2
 Time =    1854.0000000000000     
Ne    0.000000    0.000000    4.233416
Ne    0.000000    0.000000    0.000000
           2
 Time =    1855.0000000000000     
Ne    0.000000    0.000000    4.233416
Ne    0.000000    0.000000    0.000000
           2
 Time =    1856.0000000000000     
Ne    0.000000    0.000000    4.233416
Ne    0.000000    0.000000    0.000000
           2
 Time =    1857.0000000000000     
Ne    0.000000    0.000000    4.233416
Ne    0.000000    0.000000    0.000000
           2
 Time =    1858.0000000000000     
Ne    0.000000    0.000000    4.233416
Ne    0.000000    0.000000    0.000000
           2
 Time =    1859.0000000000000     
Ne    0.000000    0.000000    4.233416
Ne    0.000000    0.000000    0.000000
           2
 Time =    1860.0000000000000     
Ne    0.000000    0.000000    4.233416
Ne    0.000000    0.000000    0.000000
           2
 Time =    1861.0000000000000     
Ne    0.000000    0.000000    4.233416
Ne    0.000000    0.000000    0.000000
           2
 Time =    1862.0000000000000     
Ne    0.000000    0.000000    4.233416
Ne    0.000000    0.000000    0.000000
           2
 Time =    1863.0000000000000     
Ne    0.000000    0.000000    4.233416
Ne    0.000000    0.000000    0.000000
           2
 Time =    1864.0000000000000     
Ne    0.000000    0.000000    4.233416
Ne    0.000000    0.000000    0.000000
           2
 Time =    1865.0000000000000     
Ne    0.000000    0.000000    4.233416
Ne    0.000000    0.000000    0.000000
           2
 Time =    1866.0000000000000     
Ne    0.000000    0.000000    4.233416
Ne    0.000000    0.000000    0.000000
           2
 Time =    1867.0000000000000     
Ne    0.000000    0.000000    4.233416
Ne    0.000000    0.000000    0.000000
           2
 Time =    1868.0000000000000     
Ne    0.000000    0.000000    4.233416
Ne    0.000000    0.000000    0.000000
           2
 Time =    1869.0000000000000     
Ne    0.000000    0.000000    4.233416
Ne    0.000000    0.000000    0.000000
           2
 Time =    1870.0000000000000     
Ne    0.000000    0.000000    4.233416
Ne    0.000000    0.000000    0.000000
           2
 Time =    1871.0000000000000     
Ne    0.000000    0.000000    4.233416
Ne    0.000000    0.000000    0.000000
           2
 Time =    1872.0000000000000     
Ne    0.000000    0.000000    4.233416
Ne    0.000000    0.000000    0.000000
           2
 Time =    1873.0000000000000     
Ne    0.000000    0.000000    4.233416
Ne    0.000000    0.000000    0.000000
           2
 Time =    1874.0000000000000     
Ne    0.000000    0.000000    4.233416
Ne    0.000000    0.000000    0.000000
           2
 Time =    1875.0000000000000     
Ne    0.000000    0.000000    4.233416
Ne    0.000000    0.000000    0.000000
           2
 Time =    1876.0000000000000     
Ne    0.000000    0.000000    4.233416
Ne    0.000000    0.000000    0.000000
           2
 Time =    1877.0000000000000     
Ne    0.000000    0.000000    4.233416
Ne    0.000000    0.000000    0.000000
           2
 Time =    1878.0000000000000     
Ne    0.000000    0.000000    4.233416
Ne    0.000000    0.000000    0.000000
           2
 Time =    1879.0000000000000     
Ne    0.000000    0.000000    4.233416
Ne    0.000000    0.000000    0.000000
           2
 Time =    1880.0000000000000     
Ne    0.000000    0.000000    4.233416
Ne    0.000000    0.000000    0.000000
           2
 Time =    1881.0000000000000     
Ne    0.000000    0.000000    4.233416
Ne    0.000000    0.000000    0.000000
           2
 Time =    1882.0000000000000     
Ne    0.000000    0.000000    4.233416
Ne    0.000000    0.000000    0.000000
           2
 Time =    1883.0000000000000     
Ne    0.000000    0.000000    4.233416
Ne    0.000000    0.000000    0.000000
           2
 Time =    1884.0000000000000     
Ne    0.000000    0.000000    4.233416
Ne    0.000000    0.000000    0.000000
           2
 Time =    1885.0000000000000     
Ne    0.000000    0.000000    4.233416
Ne    0.000000    0.000000    0.000000
           2
 Time =    1886.0000000000000     
Ne    0.000000    0.000000    4.233416
Ne    0.000000    0.000000    0.000000
           2
 Time =    1887.0000000000000     
Ne    0.000000    0.000000    4.233416
Ne    0.000000    0.000000    0.000000
           2
 Time =    1888.0000000000000     
Ne    0.000000    0.000000    4.233416
Ne    0.000000    0.000000    0.000000
           2
 Time =    1889.0000000000000     
Ne    0.000000    0.000000    4.233416
Ne    0.000000    0.000000    0.000000
           2
 Time =    1890.0000000000000     
Ne    0.000000    0.000000    4.233416
Ne    0.000000    0.000000    0.000000
           2
 Time =    1891.0000000000000     
Ne    0.000000    0.000000    4.233416
Ne    0.000000    0.000000    0.000000
           2
 Time =    1892.0000000000000     
Ne    0.000000    0.000000    4.233416
Ne    0.000000    0.000000    0.000000
           2
 Time =    1893.0000000000000     
Ne    0.000000    0.000000    4.233416
Ne    0.000000    0.000000    0.000000
           2
 Time =    1894.0000000000000     
Ne    0.000000    0.000000    4.233416
Ne    0.000000    0.000000    0.000000
           2
 Time =    1895.0000000000000     
Ne    0.000000    0.000000    4.233416
Ne    0.000000    0.000000    0.000000
           2
 Time =    1896.0000000000000     
Ne    0.000000    0.000000    4.233416
Ne    0.000000    0.000000    0.000000
           2
 Time =    1897.0000000000000     
Ne    0.000000    0.000000    4.233416
Ne    0.000000    0.000000    0.000000
           2
 Time =    1898.0000000000000     
Ne    0.000000    0.000000    4.233416
Ne    0.000000    0.000000    0.000000
           2
 Time =    1899.0000000000000     
Ne    0.000000    0.000000    4.233416
Ne    0.000000    0.000000    0.000000
           2
 Time =    1900.0000000000000     
Ne    0.000000    0.000000    4.233416
Ne    0.000000    0.000000    0.000000
           2
 Time =    1901.0000000000000     
Ne    0.000000    0.000000    4.233416
Ne    0.000000    0.000000    0.000000
           2
 Time =    1902.0000000000000     
Ne    0.000000    0.000000    4.233416
Ne    0.000000    0.000000    0.000000
           2
 Time =    1903.0000000000000     
Ne    0.000000    0.000000    4.233416
Ne    0.000000    0.000000    0.000000
           2
 Time =    1904.0000000000000     
Ne    0.000000    0.000000    4.233416
Ne    0.000000    0.000000    0.000000
           2
 Time =    1905.0000000000000     
Ne    0.000000    0.000000    4.233416
Ne    0.000000    0.000000    0.000000
           2
 Time =    1906.0000000000000     
Ne    0.000000    0.000000    4.233416
Ne    0.000000    0.000000    0.000000
           2
 Time =    1907.0000000000000     
Ne    0.000000    0.000000    4.233416
Ne    0.000000    0.000000    0.000000
           2
 Time =    1908.0000000000000     
Ne    0.000000    0.000000    4.233416
Ne    0.000000    0.000000    0.000000
           2
 Time =    1909.0000000000000     
Ne    0.000000    0.000000    4.233416
Ne    0.000000    0.000000    0.000000
           2
 Time =    1910.0000000000000     
Ne    0.000000    0.000000    4.233416
Ne    0.000000    0.000000    0.000000
           2
 Time =    1911.0000000000000     
Ne    0.000000    0.000000    4.233416
Ne    0.000000    0.000000    0.000000
           2
 Time =    1912.0000000000000     
Ne    0.000000    0.000000    4.233416
Ne    0.000000    0.000000    0.000000
           2
 Time =    1913.0000000000000     
Ne    0.000000    0.000000    4.233416
Ne    0.000000    0.000000    0.000000
           2
 Time =    1914.0000000000000     
Ne    0.000000    0.000000    4.233416
Ne    0.000000    0.000000    0.000000
           2
 Time =    1915.0000000000000     
Ne    0.000000    0.000000    4.233416
Ne    0.000000    0.000000    0.000000
           2
 Time =    1916.0000000000000     
Ne    0.000000    0.000000    4.233416
Ne    0.000000    0.000000    0.000000
           2
 Time =    1917.0000000000000     
Ne    0.000000    0.000000    4.233416
Ne    0.000000    0.000000    0.000000
           2
 Time =    1918.0000000000000     
Ne    0.000000    0.000000    4.233416
Ne    0.000000    0.000000    0.000000
           2
 Time =    1919.0000000000000     
Ne    0.000000    0.000000    4.233416
Ne    0.000000    0.000000    0.000000
           2
 Time =    1920.0000000000000     
Ne    0.000000    0.000000    4.233416
Ne    0.000000    0.000000    0.000000
           2
 Time =    1921.0000000000000     
Ne    0.000000    0.000000    4.233416
Ne    0.000000    0.000000    0.000000
           2
 Time =    1922.0000000000000     
Ne    0.000000    0.000000    4.233416
Ne    0.000000    0.000000    0.000000
           2
 Time =    1923.0000000000000     
Ne    0.000000    0.000000    4.233416
Ne    0.000000    0.000000    0.000000
           2
 Time =    1924.0000000000000     
Ne    0.000000    0.000000    4.233416
Ne    0.000000    0.000000    0.000000
           2
 Time =    1925.0000000000000     
Ne    0.000000    0.000000    4.233416
Ne    0.000000    0.000000    0.000000
           2
 Time =    1926.0000000000000     
Ne    0.000000    0.000000    4.233416
Ne    0.000000    0.000000    0.000000
           2
 Time =    1927.0000000000000     
Ne    0.000000    0.000000    4.233416
Ne    0.000000    0.000000    0.000000
           2
 Time =    1928.0000000000000     
Ne    0.000000    0.000000    4.233416
Ne    0.000000    0.000000    0.000000
           2
 Time =    1929.0000000000000     
Ne    0.000000    0.000000    4.233416
Ne    0.000000    0.000000    0.000000
           2
 Time =    1930.0000000000000     
Ne    0.000000    0.000000    4.233416
Ne    0.000000    0.000000    0.000000
           2
 Time =    1931.0000000000000     
Ne    0.000000    0.000000    4.233416
Ne    0.000000    0.000000    0.000000
           2
 Time =    1932.0000000000000     
Ne    0.000000    0.000000    4.233416
Ne    0.000000    0.000000    0.000000
           2
 Time =    1933.0000000000000     
Ne    0.000000    0.000000    4.233416
Ne    0.000000    0.000000    0.000000
           2
 Time =    1934.0000000000000     
Ne    0.000000    0.000000    4.233416
Ne    0.000000    0.000000    0.000000
           2
 Time =    1935.0000000000000     
Ne    0.000000    0.000000    4.233416
Ne    0.000000    0.000000    0.000000
           2
 Time =    1936.0000000000000     
Ne    0.000000    0.000000    4.233416
Ne    0.000000    0.000000    0.000000
           2
 Time =    1937.0000000000000     
Ne    0.000000    0.000000    4.233416
Ne    0.000000    0.000000    0.000000
           2
 Time =    1938.0000000000000     
Ne    0.000000    0.000000    4.233416
Ne    0.000000    0.000000    0.000000
           2
 Time =    1939.0000000000000     
Ne    0.000000    0.000000    4.233416
Ne    0.000000    0.000000    0.000000
           2
 Time =    1940.0000000000000     
Ne    0.000000    0.000000    4.233416
Ne    0.000000    0.000000    0.000000
           2
 Time =    1941.0000000000000     
Ne    0.000000    0.000000    4.233416
Ne    0.000000    0.000000    0.000000
           2
 Time =    1942.0000000000000     
Ne    0.000000    0.000000    4.233416
Ne    0.000000    0.000000    0.000000
           2
 Time =    1943.0000000000000     
Ne    0.000000    0.000000    4.233416
Ne    0.000000    0.000000    0.000000
           2
 Time =    1944.0000000000000     
Ne    0.000000    0.000000    4.233416
Ne    0.000000    0.000000    0.000000
           2
 Time =    1945.0000000000000     
Ne    0.000000    0.000000    4.233416
Ne    0.000000    0.000000    0.000000
           2
 Time =    1946.0000000000000     
Ne    0.000000    0.000000    4.233416
Ne    0.000000    0.000000    0.000000
           2
 Time =    1947.0000000000000     
Ne    0.000000    0.000000    4.233416
Ne    0.000000    0.000000    0.000000
           2
 Time =    1948.0000000000000     
Ne    0.000000    0.000000    4.233416
Ne    0.000000    0.000000    0.000000
           2
 Time =    1949.0000000000000     
Ne    0.000000    0.000000    4.233416
Ne    0.000000    0.000000    0.000000
           2
 Time =    1950.0000000000000     
Ne    0.000000    0.000000    4.233416
Ne    0.000000    0.000000    0.000000
           2
 Time =    1951.0000000000000     
Ne    0.000000    0.000000    4.233416
Ne    0.000000    0.000000    0.000000
           2
 Time =    1952.0000000000000     
Ne    0.000000    0.000000    4.233416
Ne    0.000000    0.000000    0.000000
           2
 Time =    1953.0000000000000     
Ne    0.000000    0.000000    4.233416
Ne    0.000000    0.000000    0.000000
           2
 Time =    1954.0000000000000     
Ne    0.000000    0.000000    4.233416
Ne    0.000000    0.000000    0.000000
           2
 Time =    1955.0000000000000     
Ne    0.000000    0.000000    4.233416
Ne    0.000000    0.000000    0.000000
           2
 Time =    1956.0000000000000     
Ne    0.000000    0.000000    4.233416
Ne    0.000000    0.000000    0.000000
           2
 Time =    1957.0000000000000     
Ne    0.000000    0.000000    4.233416
Ne    0.000000    0.000000    0.000000
           2
 Time =    1958.0000000000000     
Ne    0.000000    0.000000    4.233416
Ne    0.000000    0.000000    0.000000
           2
 Time =    1959.0000000000000     
Ne    0.000000    0.000000    4.233416
Ne    0.000000    0.000000    0.000000
           2
 Time =    1960.0000000000000     
Ne    0.000000    0.000000    4.233416
Ne    0.000000    0.000000    0.000000
           2
 Time =    1961.0000000000000     
Ne    0.000000    0.000000    4.233416
Ne    0.000000    0.000000    0.000000
           2
 Time =    1962.0000000000000     
Ne    0.000000    0.000000    4.233416
Ne    0.000000    0.000000    0.000000
           2
 Time =    1963.0000000000000     
Ne    0.000000    0.000000    4.233416
Ne    0.000000    0.000000    0.000000
           2
 Time =    1964.0000000000000     
Ne    0.000000    0.000000    4.233416
Ne    0.000000    0.000000    0.000000
           2
 Time =    1965.0000000000000     
Ne    0.000000    0.000000    4.233416
Ne    0.000000    0.000000    0.000000
           2
 Time =    1966.0000000000000     
Ne    0.000000    0.000000    4.233416
Ne    0.000000    0.000000    0.000000
           2
 Time =    1967.0000000000000     
Ne    0.000000    0.000000    4.233416
Ne    0.000000    0.000000    0.000000
           2
 Time =    1968.0000000000000     
Ne    0.000000    0.000000    4.233416
Ne    0.000000    0.000000    0.000000
           2
 Time =    1969.0000000000000     
Ne    0.000000    0.000000    4.233416
Ne    0.000000    0.000000    0.000000
           2
 Time =    1970.0000000000000     
Ne    0.000000    0.000000    4.233416
Ne    0.000000    0.000000    0.000000
           2
 Time =    1971.0000000000000     
Ne    0.000000    0.000000    4.233416
Ne    0.000000    0.000000    0.000000
           2
 Time =    1972.0000000000000     
Ne    0.000000    0.000000    4.233416
Ne    0.000000    0.000000    0.000000
           2
 Time =    1973.0000000000000     
Ne    0.000000    0.000000    4.233416
Ne    0.000000    0.000000    0.000000
           2
 Time =    1974.0000000000000     
Ne    0.000000    0.000000    4.233416
Ne    0.000000    0.000000    0.000000
           2
 Time =    1975.0000000000000     
Ne    0.000000    0.000000    4.233416
Ne    0.000000    0.000000    0.000000
           2
 Time =    1976.0000000000000     
Ne    0.000000    0.000000    4.233416
Ne    0.000000    0.000000    0.000000
           2
 Time =    1977.0000000000000     
Ne    0.000000    0.000000    4.233416
Ne    0.000000    0.000000    0.000000
           2
 Time =    1978.0000000000000     
Ne    0.000000    0.000000    4.233416
Ne    0.000000    0.000000    0.000000
           2
 Time =    1979.0000000000000     
Ne    0.000000    0.000000    4.233416
Ne    0.000000    0.000000    0.000000
           2
 Time =    1980.0000000000000     
Ne    0.000000    0.000000    4.233416
Ne    0.000000    0.000000    0.000000
           2
 Time =    1981.0000000000000     
Ne    0.000000    0.000000    4.233416
Ne    0.000000    0.000000    0.000000
           2
 Time =    1982.0000000000000     
Ne    0.000000    0.000000    4.233416
Ne    0.000000    0.000000    0.000000
           2
 Time =    1983.0000000000000     
Ne    0.000000    0.000000    4.233416
Ne    0.000000    0.000000    0.000000
           2
 Time =    1984.0000000000000     
Ne    0.000000    0.000000    4.233416
Ne    0.000000    0.000000    0.000000
           2
 Time =    1985.0000000000000     
Ne    0.000000    0.000000    4.233416
Ne    0.000000    0.000000    0.000000
           2
 Time =    1986.0000000000000     
Ne    0.000000    0.000000    4.233416
Ne    0.000000    0.000000    0.000000
           2
 Time =    1987.0000000000000     
Ne    0.000000    0.000000    4.233416
Ne    0.000000    0.000000    0.000000
           2
 Time =    1988.0000000000000     
Ne    0.000000    0.000000    4.233416
Ne    0.000000    0.000000    0.000000
           2
 Time =    1989.0000000000000     
Ne    0.000000    0.000000    4.233416
Ne    0.000000    0.000000    0.000000
           2
 Time =    1990.0000000000000     
Ne    0.000000    0.000000    4.233416
Ne    0.000000    0.000000    0.000000
           2
 Time =    1991.0000000000000     
Ne    0.000000    0.000000    4.233416
Ne    0.000000    0.000000    0.000000
           2
 Time =    1992.0000000000000     
Ne    0.000000    0.000000    4.233416
Ne    0.000000    0.000000    0.000000
           2
 Time =    1993.0000000000000     
Ne    0.000000    0.000000    4.233416
Ne    0.000000    0.000000    0.000000
           2
 Time =    1994.0000000000000     
Ne    0.000000    0.000000    4.233416
Ne    0.000000    0.000000    0.000000
           2
 Time =    1995.0000000000000     
Ne    0.000000    0.000000    4.233416
Ne    0.000000    0.000000    0.000000
           2
 Time =    1996.0000000000000     
Ne    0.000000    0.000000    4.233416
Ne    0.000000    0.000000    0.000000
           2
 Time =    1997.0000000000000     
Ne    0.000000    0.000000    4.233416
Ne    0.000000    0.000000    0.000000
           2
 Time =    1998.0000000000000     
Ne    0.000000    0.000000    4.233416
Ne    0.000000    0.000000    0.000000
           2
 Time =    1999.0000000000000     
Ne    0.000000    0.000000    4.233416
Ne    0.000000    0.000000    0.000000
           2
 Time =    2000.0000000000000     
Ne    0.000000    0.000000    4.233416
Ne    0.000000    0.000000    0.000000
           2
 Time =    2001.0000000000000     
Ne    0.000000    0.000000    4.233416
Ne    0.000000    0.000000    0.000000
           2
 Time =    2002.0000000000000     
Ne    0.000000    0.000000    4.233416
Ne    0.000000    0.000000    0.000000
           2
 Time =    2003.0000000000000     
Ne    0.000000    0.000000    4.233416
Ne    0.000000    0.000000    0.000000
           2
 Time =    2004.0000000000000     
Ne    0.000000    0.000000    4.233416
Ne    0.000000    0.000000    0.000000
           2
 Time =    2005.0000000000000     
Ne    0.000000    0.000000    4.233416
Ne    0.000000    0.000000    0.000000
           2
 Time =    2006.0000000000000     
Ne    0.000000    0.000000    4.233416
Ne    0.000000    0.000000    0.000000
           2
 Time =    2007.0000000000000     
Ne    0.000000    0.000000    4.233416
Ne    0.000000    0.000000    0.000000
           2
 Time =    2008.0000000000000     
Ne    0.000000    0.000000    4.233416
Ne    0.000000    0.000000    0.000000
           2
 Time =    2009.0000000000000     
Ne    0.000000    0.000000    4.233416
Ne    0.000000    0.000000    0.000000
           2
 Time =    2010.0000000000000     
Ne    0.000000    0.000000    4.233416
Ne    0.000000    0.000000    0.000000
           2
 Time =    2011.0000000000000     
Ne    0.000000    0.000000    4.233416
Ne    0.000000    0.000000    0.000000
           2
 Time =    2012.0000000000000     
Ne    0.000000    0.000000    4.233416
Ne    0.000000    0.000000    0.000000
           2
 Time =    2013.0000000000000     
Ne    0.000000    0.000000    4.233416
Ne    0.000000    0.000000    0.000000
           2
 Time =    2014.0000000000000     
Ne    0.000000    0.000000    4.233416
Ne    0.000000    0.000000    0.000000
           2
 Time =    2015.0000000000000     
Ne    0.000000    0.000000    4.233416
Ne    0.000000    0.000000    0.000000
           2
 Time =    2016.0000000000000     
Ne    0.000000    0.000000    4.233416
Ne    0.000000    0.000000    0.000000
           2
 Time =    2017.0000000000000     
Ne    0.000000    0.000000    4.233416
Ne    0.000000    0.000000    0.000000
           2
 Time =    2018.0000000000000     
Ne    0.000000    0.000000    4.233416
Ne    0.000000    0.000000    0.000000
           2
 Time =    2019.0000000000000     
Ne    0.000000    0.000000    4.233416
Ne    0.000000    0.000000    0.000000
           2
 Time =    2020.0000000000000     
Ne    0.000000    0.000000    4.233416
Ne    0.000000    0.000000    0.000000
           2
 Time =    2021.0000000000000     
Ne    0.000000    0.000000    4.233416
Ne    0.000000    0.000000    0.000000
           2
 Time =    2022.0000000000000     
Ne    0.000000    0.000000    4.233416
Ne    0.000000    0.000000    0.000000
           2
 Time =    2023.0000000000000     
Ne    0.000000    0.000000    4.233416
Ne    0.000000    0.000000    0.000000
           2
 Time =    2024.0000000000000     
Ne    0.000000    0.000000    4.233416
Ne    0.000000    0.000000    0.000000
           2
 Time =    2025.0000000000000     
Ne    0.000000    0.000000    4.233416
Ne    0.000000    0.000000    0.000000
           2
 Time =    2026.0000000000000     
Ne    0.000000    0.000000    4.233416
Ne    0.000000    0.000000    0.000000
           2
 Time =    2027.0000000000000     
Ne    0.000000    0.000000    4.233416
Ne    0.000000    0.000000    0.000000
           2
 Time =    2028.0000000000000     
Ne    0.000000    0.000000    4.233416
Ne    0.000000    0.000000    0.000000
           2
 Time =    2029.0000000000000     
Ne    0.000000    0.000000    4.233416
Ne    0.000000    0.000000    0.000000
           2
 Time =    2030.0000000000000     
Ne    0.000000    0.000000    4.233416
Ne    0.000000    0.000000    0.000000
           2
 Time =    2031.0000000000000     
Ne    0.000000    0.000000    4.233416
Ne    0.000000    0.000000    0.000000
           2
 Time =    2032.0000000000000     
Ne    0.000000    0.000000    4.233416
Ne    0.000000    0.000000    0.000000
           2
 Time =    2033.0000000000000     
Ne    0.000000    0.000000    4.233416
Ne    0.000000    0.000000    0.000000
           2
 Time =    2034.0000000000000     
Ne    0.000000    0.000000    4.233416
Ne    0.000000    0.000000    0.000000
           2
 Time =    2035.0000000000000     
Ne    0.000000    0.000000    4.233416
Ne    0.000000    0.000000    0.000000
           2
 Time =    2036.0000000000000     
Ne    0.000000    0.000000    4.233416
Ne    0.000000    0.000000    0.000000
           2
 Time =    2037.0000000000000     
Ne    0.000000    0.000000    4.233416
Ne    0.000000    0.000000    0.000000
           2
 Time =    2038.0000000000000     
Ne    0.000000    0.000000    4.233416
Ne    0.000000    0.000000    0.000000
           2
 Time =    2039.0000000000000     
Ne    0.000000    0.000000    4.233416
Ne    0.000000    0.000000    0.000000
           2
 Time =    2040.0000000000000     
Ne    0.000000    0.000000    4.233416
Ne    0.000000    0.000000    0.000000
           2
 Time =    2041.0000000000000     
Ne    0.000000    0.000000    4.233416
Ne    0.000000    0.000000    0.000000
           2
 Time =    2042.0000000000000     
Ne    0.000000    0.000000    4.233416
Ne    0.000000    0.000000    0.000000
           2
 Time =    2043.0000000000000     
Ne    0.000000    0.000000    4.233416
Ne    0.000000    0.000000    0.000000
           2
 Time =    2044.0000000000000     
Ne    0.000000    0.000000    4.233416
Ne    0.000000    0.000000    0.000000
           2
 Time =    2045.0000000000000     
Ne    0.000000    0.000000    4.233416
Ne    0.000000    0.000000    0.000000
           2
 Time =    2046.0000000000000     
Ne    0.000000    0.000000    4.233416
Ne    0.000000    0.000000    0.000000
           2
 Time =    2047.0000000000000     
Ne    0.000000    0.000000    4.233416
Ne    0.000000    0.000000    0.000000
           2
 Time =    2048.0000000000000     
Ne    0.000000    0.000000    4.233416
Ne    0.000000    0.000000    0.000000
           2
 Time =    2049.0000000000000     
Ne    0.000000    0.000000    4.233416
Ne    0.000000    0.000000    0.000000
           2
 Time =    2050.0000000000000     
Ne    0.000000    0.000000    4.233416
Ne    0.000000    0.000000    0.000000
           2
 Time =    2051.0000000000000     
Ne    0.000000    0.000000    4.233416
Ne    0.000000    0.000000    0.000000
           2
 Time =    2052.0000000000000     
Ne    0.000000    0.000000    4.233416
Ne    0.000000    0.000000    0.000000
           2
 Time =    2053.0000000000000     
Ne    0.000000    0.000000    4.233416
Ne    0.000000    0.000000    0.000000
           2
 Time =    2054.0000000000000     
Ne    0.000000    0.000000    4.233416
Ne    0.000000    0.000000    0.000000
           2
 Time =    2055.0000000000000     
Ne    0.000000    0.000000    4.233416
Ne    0.000000    0.000000    0.000000
           2
 Time =    2056.0000000000000     
Ne    0.000000    0.000000    4.233416
Ne    0.000000    0.000000    0.000000
           2
 Time =    2057.0000000000000     
Ne    0.000000    0.000000    4.233416
Ne    0.000000    0.000000    0.000000
           2
 Time =    2058.0000000000000     
Ne    0.000000    0.000000    4.233416
Ne    0.000000    0.000000    0.000000
           2
 Time =    2059.0000000000000     
Ne    0.000000    0.000000    4.233416
Ne    0.000000    0.000000    0.000000
           2
 Time =    2060.0000000000000     
Ne    0.000000    0.000000    4.233416
Ne    0.000000    0.000000    0.000000
           2
 Time =    2061.0000000000000     
Ne    0.000000    0.000000    4.233416
Ne    0.000000    0.000000    0.000000
           2
 Time =    2062.0000000000000     
Ne    0.000000    0.000000    4.233416
Ne    0.000000    0.000000    0.000000
           2
 Time =    2063.0000000000000     
Ne    0.000000    0.000000    4.233416
Ne    0.000000    0.000000    0.000000
           2
 Time =    2064.0000000000000     
Ne    0.000000    0.000000    4.233416
Ne    0.000000    0.000000    0.000000
           2
 Time =    2065.0000000000000     
Ne    0.000000    0.000000    4.233416
Ne    0.000000    0.000000    0.000000
           2
 Time =    2066.0000000000000     
Ne    0.000000    0.000000    4.233416
Ne    0.000000    0.000000    0.000000
           2
 Time =    2067.0000000000000     
Ne    0.000000    0.000000    4.233416
Ne    0.000000    0.000000    0.000000
           2
 Time =    2068.0000000000000     
Ne    0.000000    0.000000    4.233416
Ne    0.000000    0.000000    0.000000
           2
 Time =    2069.0000000000000     
Ne    0.000000    0.000000    4.233416
Ne    0.000000    0.000000    0.000000
           2
 Time =    2070.0000000000000     
Ne    0.000000    0.000000    4.233416
Ne    0.000000    0.000000    0.000000
           2
 Time =    2071.0000000000000     
Ne    0.000000    0.000000    4.233416
Ne    0.000000    0.000000    0.000000
           2
 Time =    2072.0000000000000     
Ne    0.000000    0.000000    4.233416
Ne    0.000000    0.000000    0.000000
           2
 Time =    2073.0000000000000     
Ne    0.000000    0.000000    4.233416
Ne    0.000000    0.000000    0.000000
           2
 Time =    2074.0000000000000     
Ne    0.000000    0.000000    4.233416
Ne    0.000000    0.000000    0.000000
           2
 Time =    2075.0000000000000     
Ne    0.000000    0.000000    4.233416
Ne    0.000000    0.000000    0.000000
           2
 Time =    2076.0000000000000     
Ne    0.000000    0.000000    4.233416
Ne    0.000000    0.000000    0.000000
           2
 Time =    2077.0000000000000     
Ne    0.000000    0.000000    4.233416
Ne    0.000000    0.000000    0.000000
           2
 Time =    2078.0000000000000     
Ne    0.000000    0.000000    4.233416
Ne    0.000000    0.000000    0.000000
           2
 Time =    2079.0000000000000     
Ne    0.000000    0.000000    4.233416
Ne    0.000000    0.000000    0.000000
           2
 Time =    2080.0000000000000     
Ne    0.000000    0.000000    4.233416
Ne    0.000000    0.000000    0.000000
           2
 Time =    2081.0000000000000     
Ne    0.000000    0.000000    4.233416
Ne    0.000000    0.000000    0.000000
           2
 Time =    2082.0000000000000     
Ne    0.000000    0.000000    4.233416
Ne    0.000000    0.000000    0.000000
           2
 Time =    2083.0000000000000     
Ne    0.000000    0.000000    4.233416
Ne    0.000000    0.000000    0.000000
           2
 Time =    2084.0000000000000     
Ne    0.000000    0.000000    4.233416
Ne    0.000000    0.000000    0.000000
           2
 Time =    2085.0000000000000     
Ne    0.000000    0.000000    4.233416
Ne    0.000000    0.000000    0.000000
           2
 Time =    2086.0000000000000     
Ne    0.000000    0.000000    4.233416
Ne    0.000000    0.000000    0.000000
           2
 Time =    2087.0000000000000     
Ne    0.000000    0.000000    4.233416
Ne    0.000000    0.000000    0.000000
           2
 Time =    2088.0000000000000     
Ne    0.000000    0.000000    4.233416
Ne    0.000000    0.000000    0.000000
           2
 Time =    2089.0000000000000     
Ne    0.000000    0.000000    4.233416
Ne    0.000000    0.000000    0.000000
           2
 Time =    2090.0000000000000     
Ne    0.000000    0.000000    4.233416
Ne    0.000000    0.000000    0.000000
           2
 Time =    2091.0000000000000     
Ne    0.000000    0.000000    4.233416
Ne    0.000000    0.000000    0.000000
           2
 Time =    2092.0000000000000     
Ne    0.000000    0.000000    4.233416
Ne    0.000000    0.000000    0.000000
           2
 Time =    2093.0000000000000     
Ne    0.000000    0.000000    4.233416
Ne    0.000000    0.000000    0.000000
           2
 Time =    2094.0000000000000     
Ne    0.000000    0.000000    4.233416
Ne    0.000000    0.000000    0.000000
           2
 Time =    2095.0000000000000     
Ne    0.000000    0.000000    4.233416
Ne    0.000000    0.000000    0.000000
           2
 Time =    2096.0000000000000     
Ne    0.000000    0.000000    4.233416
Ne    0.000000    0.000000    0.000000
           2
 Time =    2097.0000000000000     
Ne    0.000000    0.000000    4.233416
Ne    0.000000    0.000000    0.000000
           2
 Time =    2098.0000000000000     
Ne    0.000000    0.000000    4.233416
Ne    0.000000    0.000000    0.000000
           2
 Time =    2099.0000000000000     
Ne    0.000000    0.000000    4.233416
Ne    0.000000    0.000000    0.000000
           2
 Time =    2100.0000000000000     
Ne    0.000000    0.000000    4.233416
Ne    0.000000    0.000000    0.000000
           2
 Time =    2101.0000000000000     
Ne    0.000000    0.000000    4.233416
Ne    0.000000    0.000000    0.000000
           2
 Time =    2102.0000000000000     
Ne    0.000000    0.000000    4.233416
Ne    0.000000    0.000000    0.000000
           2
 Time =    2103.0000000000000     
Ne    0.000000    0.000000    4.233416
Ne    0.000000    0.000000    0.000000
           2
 Time =    2104.0000000000000     
Ne    0.000000    0.000000    4.233416
Ne    0.000000    0.000000    0.000000
           2
 Time =    2105.0000000000000     
Ne    0.000000    0.000000    4.233416
Ne    0.000000    0.000000    0.000000
           2
 Time =    2106.0000000000000     
Ne    0.000000    0.000000    4.233416
Ne    0.000000    0.000000    0.000000
           2
 Time =    2107.0000000000000     
Ne    0.000000    0.000000    4.233416
Ne    0.000000    0.000000    0.000000
           2
 Time =    2108.0000000000000     
Ne    0.000000    0.000000    4.233416
Ne    0.000000    0.000000    0.000000
           2
 Time =    2109.0000000000000     
Ne    0.000000    0.000000    4.233416
Ne    0.000000    0.000000    0.000000
           2
 Time =    2110.0000000000000     
Ne    0.000000    0.000000    4.233416
Ne    0.000000    0.000000    0.000000
           2
 Time =    2111.0000000000000     
Ne    0.000000    0.000000    4.233416
Ne    0.000000    0.000000    0.000000
           2
 Time =    2112.0000000000000     
Ne    0.000000    0.000000    4.233416
Ne    0.000000    0.000000    0.000000
           2
 Time =    2113.0000000000000     
Ne    0.000000    0.000000    4.233416
Ne    0.000000    0.000000    0.000000
           2
 Time =    2114.0000000000000     
Ne    0.000000    0.000000    4.233416
Ne    0.000000    0.000000    0.000000
           2
 Time =    2115.0000000000000     
Ne    0.000000    0.000000    4.233416
Ne    0.000000    0.000000    0.000000
           2
 Time =    2116.0000000000000     
Ne    0.000000    0.000000    4.233416
Ne    0.000000    0.000000    0.000000
           2
 Time =    2117.0000000000000     
Ne    0.000000    0.000000    4.233416
Ne    0.000000    0.000000    0.000000
           2
 Time =    2118.0000000000000     
Ne    0.000000    0.000000    4.233416
Ne    0.000000    0.000000    0.000000
           2
 Time =    2119.0000000000000     
Ne    0.000000    0.000000    4.233416
Ne    0.000000    0.000000    0.000000
           2
 Time =    2120.0000000000000     
Ne    0.000000    0.000000    4.233416
Ne    0.000000    0.000000    0.000000
           2
 Time =    2121.0000000000000     
Ne    0.000000    0.000000    4.233416
Ne    0.000000    0.000000    0.000000
           2
 Time =    2122.0000000000000     
Ne    0.000000    0.000000    4.233416
Ne    0.000000    0.000000    0.000000
           2
 Time =    2123.0000000000000     
Ne    0.000000    0.000000    4.233416
Ne    0.000000    0.000000    0.000000
           2
 Time =    2124.0000000000000     
Ne    0.000000    0.000000    4.233416
Ne    0.000000    0.000000    0.000000
           2
 Time =    2125.0000000000000     
Ne    0.000000    0.000000    4.233416
Ne    0.000000    0.000000    0.000000
           2
 Time =    2126.0000000000000     
Ne    0.000000    0.000000    4.233416
Ne    0.000000    0.000000    0.000000
           2
 Time =    2127.0000000000000     
Ne    0.000000    0.000000    4.233416
Ne    0.000000    0.000000    0.000000
           2
 Time =    2128.0000000000000     
Ne    0.000000    0.000000    4.233416
Ne    0.000000    0.000000    0.000000
           2
 Time =    2129.0000000000000     
Ne    0.000000    0.000000    4.233416
Ne    0.000000    0.000000    0.000000
           2
 Time =    2130.0000000000000     
Ne    0.000000    0.000000    4.233416
Ne    0.000000    0.000000    0.000000
           2
 Time =    2131.0000000000000     
Ne    0.000000    0.000000    4.233416
Ne    0.000000    0.000000    0.000000
           2
 Time =    2132.0000000000000     
Ne    0.000000    0.000000    4.233416
Ne    0.000000    0.000000    0.000000
           2
 Time =    2133.0000000000000     
Ne    0.000000    0.000000    4.233416
Ne    0.000000    0.000000    0.000000
           2
 Time =    2134.0000000000000     
Ne    0.000000    0.000000    4.233416
Ne    0.000000    0.000000    0.000000
           2
 Time =    2135.0000000000000     
Ne    0.000000    0.000000    4.233416
Ne    0.000000    0.000000    0.000000
           2
 Time =    2136.0000000000000     
Ne    0.000000    0.000000    4.233416
Ne    0.000000    0.000000    0.000000
           2
 Time =    2137.0000000000000     
Ne    0.000000    0.000000    4.233416
Ne    0.000000    0.000000    0.000000
           2
 Time =    2138.0000000000000     
Ne    0.000000    0.000000    4.233416
Ne    0.000000    0.000000    0.000000
           2
 Time =    2139.0000000000000     
Ne    0.000000    0.000000    4.233416
Ne    0.000000    0.000000    0.000000
           2
 Time =    2140.0000000000000     
Ne    0.000000    0.000000    4.233416
Ne    0.000000    0.000000    0.000000
           2
 Time =    2141.0000000000000     
Ne    0.000000    0.000000    4.233416
Ne    0.000000    0.000000    0.000000
           2
 Time =    2142.0000000000000     
Ne    0.000000    0.000000    4.233416
Ne    0.000000    0.000000    0.000000
           2
 Time =    2143.0000000000000     
Ne    0.000000    0.000000    4.233416
Ne    0.000000    0.000000    0.000000
           2
 Time =    2144.0000000000000     
Ne    0.000000    0.000000    4.233416
Ne    0.000000    0.000000    0.000000
           2
 Time =    2145.0000000000000     
Ne    0.000000    0.000000    4.233416
Ne    0.000000    0.000000    0.000000
           2
 Time =    2146.0000000000000     
Ne    0.000000    0.000000    4.233416
Ne    0.000000    0.000000    0.000000
           2
 Time =    2147.0000000000000     
Ne    0.000000    0.000000    4.233416
Ne    0.000000    0.000000    0.000000
           2
 Time =    2148.0000000000000     
Ne    0.000000    0.000000    4.233416
Ne    0.000000    0.000000    0.000000
           2
 Time =    2149.0000000000000     
Ne    0.000000    0.000000    4.233416
Ne    0.000000    0.000000    0.000000
           2
 Time =    2150.0000000000000     
Ne    0.000000    0.000000    4.233416
Ne    0.000000    0.000000    0.000000
           2
 Time =    2151.0000000000000     
Ne    0.000000    0.000000    4.233416
Ne    0.000000    0.000000    0.000000
           2
 Time =    2152.0000000000000     
Ne    0.000000    0.000000    4.233416
Ne    0.000000    0.000000    0.000000
           2
 Time =    2153.0000000000000     
Ne    0.000000    0.000000    4.233416
Ne    0.000000    0.000000    0.000000
           2
 Time =    2154.0000000000000     
Ne    0.000000    0.000000    4.233416
Ne    0.000000    0.000000    0.000000
           2
 Time =    2155.0000000000000     
Ne    0.000000    0.000000    4.233416
Ne    0.000000    0.000000    0.000000
           2
 Time =    2156.0000000000000     
Ne    0.000000    0.000000    4.233416
Ne    0.000000    0.000000    0.000000
           2
 Time =    2157.0000000000000     
Ne    0.000000    0.000000    4.233416
Ne    0.000000    0.000000    0.000000
           2
 Time =    2158.0000000000000     
Ne    0.000000    0.000000    4.233416
Ne    0.000000    0.000000    0.000000
           2
 Time =    2159.0000000000000     
Ne    0.000000    0.000000    4.233416
Ne    0.000000    0.000000    0.000000
           2
 Time =    2160.0000000000000     
Ne    0.000000    0.000000    4.233416
Ne    0.000000    0.000000    0.000000
           2
 Time =    2161.0000000000000     
Ne    0.000000    0.000000    4.233416
Ne    0.000000    0.000000    0.000000
           2
 Time =    2162.0000000000000     
Ne    0.000000    0.000000    4.233416
Ne    0.000000    0.000000    0.000000
           2
 Time =    2163.0000000000000     
Ne    0.000000    0.000000    4.233416
Ne    0.000000    0.000000    0.000000
           2
 Time =    2164.0000000000000     
Ne    0.000000    0.000000    4.233416
Ne    0.000000    0.000000    0.000000
           2
 Time =    2165.0000000000000     
Ne    0.000000    0.000000    4.233416
Ne    0.000000    0.000000    0.000000
           2
 Time =    2166.0000000000000     
Ne    0.000000    0.000000    4.233416
Ne    0.000000    0.000000    0.000000
           2
 Time =    2167.0000000000000     
Ne    0.000000    0.000000    4.233416
Ne    0.000000    0.000000    0.000000
           2
 Time =    2168.0000000000000     
Ne    0.000000    0.000000    4.233416
Ne    0.000000    0.000000    0.000000
           2
 Time =    2169.0000000000000     
Ne    0.000000    0.000000    4.233416
Ne    0.000000    0.000000    0.000000
           2
 Time =    2170.0000000000000     
Ne    0.000000    0.000000    4.233416
Ne    0.000000    0.000000    0.000000
           2
 Time =    2171.0000000000000     
Ne    0.000000    0.000000    4.233416
Ne    0.000000    0.000000    0.000000
           2
 Time =    2172.0000000000000     
Ne    0.000000    0.000000    4.233416
Ne    0.000000    0.000000    0.000000
           2
 Time =    2173.0000000000000     
Ne    0.000000    0.000000    4.233416
Ne    0.000000    0.000000    0.000000
           2
 Time =    2174.0000000000000     
Ne    0.000000    0.000000    4.233416
Ne    0.000000    0.000000    0.000000
           2
 Time =    2175.0000000000000     
Ne    0.000000    0.000000    4.233416
Ne    0.000000    0.000000    0.000000
           2
 Time =    2176.0000000000000     
Ne    0.000000    0.000000    4.233416
Ne    0.000000    0.000000    0.000000
           2
 Time =    2177.0000000000000     
Ne    0.000000    0.000000    4.233416
Ne    0.000000    0.000000    0.000000
           2
 Time =    2178.0000000000000     
Ne    0.000000    0.000000    4.233416
Ne    0.000000    0.000000    0.000000
           2
 Time =    2179.0000000000000     
Ne    0.000000    0.000000    4.233416
Ne    0.000000    0.000000    0.000000
           2
 Time =    2180.0000000000000     
Ne    0.000000    0.000000    4.233416
Ne    0.000000    0.000000    0.000000
           2
 Time =    2181.0000000000000     
Ne    0.000000    0.000000    4.233416
Ne    0.000000    0.000000    0.000000
           2
 Time =    2182.0000000000000     
Ne    0.000000    0.000000    4.233416
Ne    0.000000    0.000000    0.000000
           2
 Time =    2183.0000000000000     
Ne    0.000000    0.000000    4.233416
Ne    0.000000    0.000000    0.000000
           2
 Time =    2184.0000000000000     
Ne    0.000000    0.000000    4.233416
Ne    0.000000    0.000000    0.000000
           2
 Time =    2185.0000000000000     
Ne    0.000000    0.000000    4.233416
Ne    0.000000    0.000000    0.000000
           2
 Time =    2186.0000000000000     
Ne    0.000000    0.000000    4.233416
Ne    0.000000    0.000000    0.000000
           2
 Time =    2187.0000000000000     
Ne    0.000000    0.000000    4.233416
Ne    0.000000    0.000000    0.000000
           2
 Time =    2188.0000000000000     
Ne    0.000000    0.000000    4.233416
Ne    0.000000    0.000000    0.000000
           2
 Time =    2189.0000000000000     
Ne    0.000000    0.000000    4.233416
Ne    0.000000    0.000000    0.000000
           2
 Time =    2190.0000000000000     
Ne    0.000000    0.000000    4.233416
Ne    0.000000    0.000000    0.000000
           2
 Time =    2191.0000000000000     
Ne    0.000000    0.000000    4.233416
Ne    0.000000    0.000000    0.000000
           2
 Time =    2192.0000000000000     
Ne    0.000000    0.000000    4.233416
Ne    0.000000    0.000000    0.000000
           2
 Time =    2193.0000000000000     
Ne    0.000000    0.000000    4.233416
Ne    0.000000    0.000000    0.000000
           2
 Time =    2194.0000000000000     
Ne    0.000000    0.000000    4.233416
Ne    0.000000    0.000000    0.000000
           2
 Time =    2195.0000000000000     
Ne    0.000000    0.000000    4.233416
Ne    0.000000    0.000000    0.000000
           2
 Time =    2196.0000000000000     
Ne    0.000000    0.000000    4.233416
Ne    0.000000    0.000000    0.000000
           2
 Time =    2197.0000000000000     
Ne    0.000000    0.000000    4.233416
Ne    0.000000    0.000000    0.000000
           2
 Time =    2198.0000000000000     
Ne    0.000000    0.000000    4.233416
Ne    0.000000    0.000000    0.000000
           2
 Time =    2199.0000000000000     
Ne    0.000000    0.000000    4.233416
Ne    0.000000    0.000000    0.000000
           2
 Time =    2200.0000000000000     
Ne    0.000000    0.000000    4.233416
Ne    0.000000    0.000000    0.000000
           2
 Time =    2201.0000000000000     
Ne    0.000000    0.000000    4.233416
Ne    0.000000    0.000000    0.000000
           2
 Time =    2202.0000000000000     
Ne    0.000000    0.000000    4.233416
Ne    0.000000    0.000000    0.000000
           2
 Time =    2203.0000000000000     
Ne    0.000000    0.000000    4.233416
Ne    0.000000    0.000000    0.000000
           2
 Time =    2204.0000000000000     
Ne    0.000000    0.000000    4.233416
Ne    0.000000    0.000000    0.000000
           2
 Time =    2205.0000000000000     
Ne    0.000000    0.000000    4.233416
Ne    0.000000    0.000000    0.000000
           2
 Time =    2206.0000000000000     
Ne    0.000000    0.000000    4.233416
Ne    0.000000    0.000000    0.000000
           2
 Time =    2207.0000000000000     
Ne    0.000000    0.000000    4.233416
Ne    0.000000    0.000000    0.000000
           2
 Time =    2208.0000000000000     
Ne    0.000000    0.000000    4.233416
Ne    0.000000    0.000000    0.000000
           2
 Time =    2209.0000000000000     
Ne    0.000000    0.000000    4.233416
Ne    0.000000    0.000000    0.000000
           2
 Time =    2210.0000000000000     
Ne    0.000000    0.000000    4.233416
Ne    0.000000    0.000000    0.000000
           2
 Time =    2211.0000000000000     
Ne    0.000000    0.000000    4.233416
Ne    0.000000    0.000000    0.000000
           2
 Time =    2212.0000000000000     
Ne    0.000000    0.000000    4.233416
Ne    0.000000    0.000000    0.000000
           2
 Time =    2213.0000000000000     
Ne    0.000000    0.000000    4.233416
Ne    0.000000    0.000000    0.000000
           2
 Time =    2214.0000000000000     
Ne    0.000000    0.000000    4.233416
Ne    0.000000    0.000000    0.000000
           2
 Time =    2215.0000000000000     
Ne    0.000000    0.000000    4.233416
Ne    0.000000    0.000000    0.000000
           2
 Time =    2216.0000000000000     
Ne    0.000000    0.000000    4.233416
Ne    0.000000    0.000000    0.000000
           2
 Time =    2217.0000000000000     
Ne    0.000000    0.000000    4.233416
Ne    0.000000    0.000000    0.000000
           2
 Time =    2218.0000000000000     
Ne    0.000000    0.000000    4.233416
Ne    0.000000    0.000000    0.000000
           2
 Time =    2219.0000000000000     
Ne    0.000000    0.000000    4.233416
Ne    0.000000    0.000000    0.000000
           2
 Time =    2220.0000000000000     
Ne    0.000000    0.000000    4.233416
Ne    0.000000    0.000000    0.000000
           2
 Time =    2221.0000000000000     
Ne    0.000000    0.000000    4.233416
Ne    0.000000    0.000000    0.000000
           2
 Time =    2222.0000000000000     
Ne    0.000000    0.000000    4.233416
Ne    0.000000    0.000000    0.000000
           2
 Time =    2223.0000000000000     
Ne    0.000000    0.000000    4.233416
Ne    0.000000    0.000000    0.000000
           2
 Time =    2224.0000000000000     
Ne    0.000000    0.000000    4.233416
Ne    0.000000    0.000000    0.000000
           2
 Time =    2225.0000000000000     
Ne    0.000000    0.000000    4.233416
Ne    0.000000    0.000000    0.000000
           2
 Time =    2226.0000000000000     
Ne    0.000000    0.000000    4.233416
Ne    0.000000    0.000000    0.000000
           2
 Time =    2227.0000000000000     
Ne    0.000000    0.000000    4.233416
Ne    0.000000    0.000000    0.000000
           2
 Time =    2228.0000000000000     
Ne    0.000000    0.000000    4.233416
Ne    0.000000    0.000000    0.000000
           2
 Time =    2229.0000000000000     
Ne    0.000000    0.000000    4.233416
Ne    0.000000    0.000000    0.000000
           2
 Time =    2230.0000000000000     
Ne    0.000000    0.000000    4.233416
Ne    0.000000    0.000000    0.000000
           2
 Time =    2231.0000000000000     
Ne    0.000000    0.000000    4.233416
Ne    0.000000    0.000000    0.000000
           2
 Time =    2232.0000000000000     
Ne    0.000000    0.000000    4.233416
Ne    0.000000    0.000000    0.000000
           2
 Time =    2233.0000000000000     
Ne    0.000000    0.000000    4.233416
Ne    0.000000    0.000000    0.000000
           2
 Time =    2234.0000000000000     
Ne    0.000000    0.000000    4.233416
Ne    0.000000    0.000000    0.000000
           2
 Time =    2235.0000000000000     
Ne    0.000000    0.000000    4.233416
Ne    0.000000    0.000000    0.000000
           2
 Time =    2236.0000000000000     
Ne    0.000000    0.000000    4.233416
Ne    0.000000    0.000000    0.000000
           2
 Time =    2237.0000000000000     
Ne    0.000000    0.000000    4.233416
Ne    0.000000    0.000000    0.000000
           2
 Time =    2238.0000000000000     
Ne    0.000000    0.000000    4.233416
Ne    0.000000    0.000000    0.000000
           2
 Time =    2239.0000000000000     
Ne    0.000000    0.000000    4.233416
Ne    0.000000    0.000000    0.000000
           2
 Time =    2240.0000000000000     
Ne    0.000000    0.000000    4.233416
Ne    0.000000    0.000000    0.000000
           2
 Time =    2241.0000000000000     
Ne    0.000000    0.000000    4.233416
Ne    0.000000    0.000000    0.000000
           2
 Time =    2242.0000000000000     
Ne    0.000000    0.000000    4.233416
Ne    0.000000    0.000000    0.000000
           2
 Time =    2243.0000000000000     
Ne    0.000000    0.000000    4.233416
Ne    0.000000    0.000000    0.000000
           2
 Time =    2244.0000000000000     
Ne    0.000000    0.000000    4.233416
Ne    0.000000    0.000000    0.000000
           2
 Time =    2245.0000000000000     
Ne    0.000000    0.000000    4.233416
Ne    0.000000    0.000000    0.000000
           2
 Time =    2246.0000000000000     
Ne    0.000000    0.000000    4.233416
Ne    0.000000    0.000000    0.000000
           2
 Time =    2247.0000000000000     
Ne    0.000000    0.000000    4.233416
Ne    0.000000    0.000000    0.000000
           2
 Time =    2248.0000000000000     
Ne    0.000000    0.000000    4.233416
Ne    0.000000    0.000000    0.000000
           2
 Time =    2249.0000000000000     
Ne    0.000000    0.000000    4.233416
Ne    0.000000    0.000000    0.000000
           2
 Time =    2250.0000000000000     
Ne    0.000000    0.000000    4.233416
Ne    0.000000    0.000000    0.000000
           2
 Time =    2251.0000000000000     
Ne    0.000000    0.000000    4.233416
Ne    0.000000    0.000000    0.000000
           2
 Time =    2252.0000000000000     
Ne    0.000000    0.000000    4.233416
Ne    0.000000    0.000000    0.000000
           2
 Time =    2253.0000000000000     
Ne    0.000000    0.000000    4.233416
Ne    0.000000    0.000000    0.000000
           2
 Time =    2254.0000000000000     
Ne    0.000000    0.000000    4.233416
Ne    0.000000    0.000000    0.000000
           2
 Time =    2255.0000000000000     
Ne    0.000000    0.000000    4.233416
Ne    0.000000    0.000000    0.000000
           2
 Time =    2256.0000000000000     
Ne    0.000000    0.000000    4.233416
Ne    0.000000    0.000000    0.000000
           2
 Time =    2257.0000000000000     
Ne    0.000000    0.000000    4.233416
Ne    0.000000    0.000000    0.000000
           2
 Time =    2258.0000000000000     
Ne    0.000000    0.000000    4.233416
Ne    0.000000    0.000000    0.000000
           2
 Time =    2259.0000000000000     
Ne    0.000000    0.000000    4.233416
Ne    0.000000    0.000000    0.000000
           2
 Time =    2260.0000000000000     
Ne    0.000000    0.000000    4.233416
Ne    0.000000    0.000000    0.000000
           2
 Time =    2261.0000000000000     
Ne    0.000000    0.000000    4.233416
Ne    0.000000    0.000000    0.000000
           2
 Time =    2262.0000000000000     
Ne    0.000000    0.000000    4.233416
Ne    0.000000    0.000000    0.000000
           2
 Time =    2263.0000000000000     
Ne    0.000000    0.000000    4.233416
Ne    0.000000    0.000000    0.000000
           2
 Time =    2264.0000000000000     
Ne    0.000000    0.000000    4.233416
Ne    0.000000    0.000000    0.000000
           2
 Time =    2265.0000000000000     
Ne    0.000000    0.000000    4.233416
Ne    0.000000    0.000000    0.000000
           2
 Time =    2266.0000000000000     
Ne    0.000000    0.000000    4.233416
Ne    0.000000    0.000000    0.000000
           2
 Time =    2267.0000000000000     
Ne    0.000000    0.000000    4.233416
Ne    0.000000    0.000000    0.000000
           2
 Time =    2268.0000000000000     
Ne    0.000000    0.000000    4.233416
Ne    0.000000    0.000000    0.000000
           2
 Time =    2269.0000000000000     
Ne    0.000000    0.000000    4.233416
Ne    0.000000    0.000000    0.000000
           2
 Time =    2270.0000000000000     
Ne    0.000000    0.000000    4.233416
Ne    0.000000    0.000000    0.000000
           2
 Time =    2271.0000000000000     
Ne    0.000000    0.000000    4.233416
Ne    0.000000    0.000000    0.000000
           2
 Time =    2272.0000000000000     
Ne    0.000000    0.000000    4.233416
Ne    0.000000    0.000000    0.000000
           2
 Time =    2273.0000000000000     
Ne    0.000000    0.000000    4.233416
Ne    0.000000    0.000000    0.000000
           2
 Time =    2274.0000000000000     
Ne    0.000000    0.000000    4.233416
Ne    0.000000    0.000000    0.000000
           2
 Time =    2275.0000000000000     
Ne    0.000000    0.000000    4.233416
Ne    0.000000    0.000000    0.000000
           2
 Time =    2276.0000000000000     
Ne    0.000000    0.000000    4.233416
Ne    0.000000    0.000000    0.000000
           2
 Time =    2277.0000000000000     
Ne    0.000000    0.000000    4.233416
Ne    0.000000    0.000000    0.000000
           2
 Time =    2278.0000000000000     
Ne    0.000000    0.000000    4.233416
Ne    0.000000    0.000000    0.000000
           2
 Time =    2279.0000000000000     
Ne    0.000000    0.000000    4.233416
Ne    0.000000    0.000000    0.000000
           2
 Time =    2280.0000000000000     
Ne    0.000000    0.000000    4.233416
Ne    0.000000    0.000000    0.000000
           2
 Time =    2281.0000000000000     
Ne    0.000000    0.000000    4.233416
Ne    0.000000    0.000000    0.000000
           2
 Time =    2282.0000000000000     
Ne    0.000000    0.000000    4.233416
Ne    0.000000    0.000000    0.000000
           2
 Time =    2283.0000000000000     
Ne    0.000000    0.000000    4.233416
Ne    0.000000    0.000000    0.000000
           2
 Time =    2284.0000000000000     
Ne    0.000000    0.000000    4.233416
Ne    0.000000    0.000000    0.000000
           2
 Time =    2285.0000000000000     
Ne    0.000000    0.000000    4.233416
Ne    0.000000    0.000000    0.000000
           2
 Time =    2286.0000000000000     
Ne    0.000000    0.000000    4.233416
Ne    0.000000    0.000000    0.000000
           2
 Time =    2287.0000000000000     
Ne    0.000000    0.000000    4.233416
Ne    0.000000    0.000000    0.000000
           2
 Time =    2288.0000000000000     
Ne    0.000000    0.000000    4.233416
Ne    0.000000    0.000000    0.000000
           2
 Time =    2289.0000000000000     
Ne    0.000000    0.000000    4.233416
Ne    0.000000    0.000000    0.000000
           2
 Time =    2290.0000000000000     
Ne    0.000000    0.000000    4.233416
Ne    0.000000    0.000000    0.000000
           2
 Time =    2291.0000000000000     
Ne    0.000000    0.000000    4.233416
Ne    0.000000    0.000000    0.000000
           2
 Time =    2292.0000000000000     
Ne    0.000000    0.000000    4.233416
Ne    0.000000    0.000000    0.000000
           2
 Time =    2293.0000000000000     
Ne    0.000000    0.000000    4.233416
Ne    0.000000    0.000000    0.000000
           2
 Time =    2294.0000000000000     
Ne    0.000000    0.000000    4.233416
Ne    0.000000    0.000000    0.000000
           2
 Time =    2295.0000000000000     
Ne    0.000000    0.000000    4.233416
Ne    0.000000    0.000000    0.000000
           2
 Time =    2296.0000000000000     
Ne    0.000000    0.000000    4.233416
Ne    0.000000    0.000000    0.000000
           2
 Time =    2297.0000000000000     
Ne    0.000000    0.000000    4.233416
Ne    0.000000    0.000000    0.000000
           2
 Time =    2298.0000000000000     
Ne    0.000000    0.000000    4.233416
Ne    0.000000    0.000000    0.000000
           2
 Time =    2299.0000000000000     
Ne    0.000000    0.000000    4.233416
Ne    0.000000    0.000000    0.000000
           2
 Time =    2300.0000000000000     
Ne    0.000000    0.000000    4.233416
Ne    0.000000    0.000000    0.000000
           2
 Time =    2301.0000000000000     
Ne    0.000000    0.000000    4.233416
Ne    0.000000    0.000000    0.000000
           2
 Time =    2302.0000000000000     
Ne    0.000000    0.000000    4.233416
Ne    0.000000    0.000000    0.000000
           2
 Time =    2303.0000000000000     
Ne    0.000000    0.000000    4.233416
Ne    0.000000    0.000000    0.000000
           2
 Time =    2304.0000000000000     
Ne    0.000000    0.000000    4.233416
Ne    0.000000    0.000000    0.000000
           2
 Time =    2305.0000000000000     
Ne    0.000000    0.000000    4.233416
Ne    0.000000    0.000000    0.000000
           2
 Time =    2306.0000000000000     
Ne    0.000000    0.000000    4.233416
Ne    0.000000    0.000000    0.000000
           2
 Time =    2307.0000000000000     
Ne    0.000000    0.000000    4.233416
Ne    0.000000    0.000000    0.000000
           2
 Time =    2308.0000000000000     
Ne    0.000000    0.000000    4.233416
Ne    0.000000    0.000000    0.000000
           2
 Time =    2309.0000000000000     
Ne    0.000000    0.000000    4.233416
Ne    0.000000    0.000000    0.000000
           2
 Time =    2310.0000000000000     
Ne    0.000000    0.000000    4.233416
Ne    0.000000    0.000000    0.000000
           2
 Time =    2311.0000000000000     
Ne    0.000000    0.000000    4.233416
Ne    0.000000    0.000000    0.000000
           2
 Time =    2312.0000000000000     
Ne    0.000000    0.000000    4.233416
Ne    0.000000    0.000000    0.000000
           2
 Time =    2313.0000000000000     
Ne    0.000000    0.000000    4.233416
Ne    0.000000    0.000000    0.000000
           2
 Time =    2314.0000000000000     
Ne    0.000000    0.000000    4.233416
Ne    0.000000    0.000000    0.000000
           2
 Time =    2315.0000000000000     
Ne    0.000000    0.000000    4.233416
Ne    0.000000    0.000000    0.000000
           2
 Time =    2316.0000000000000     
Ne    0.000000    0.000000    4.233416
Ne    0.000000    0.000000    0.000000
           2
 Time =    2317.0000000000000     
Ne    0.000000    0.000000    4.233416
Ne    0.000000    0.000000    0.000000
           2
 Time =    2318.0000000000000     
Ne    0.000000    0.000000    4.233416
Ne    0.000000    0.000000    0.000000
           2
 Time =    2319.0000000000000     
Ne    0.000000    0.000000    4.233416
Ne    0.000000    0.000000    0.000000
           2
 Time =    2320.0000000000000     
Ne    0.000000    0.000000    4.233416
Ne    0.000000    0.000000    0.000000
           2
 Time =    2321.0000000000000     
Ne    0.000000    0.000000    4.233416
Ne    0.000000    0.000000    0.000000
           2
 Time =    2322.0000000000000     
Ne    0.000000    0.000000    4.233416
Ne    0.000000    0.000000    0.000000
           2
 Time =    2323.0000000000000     
Ne    0.000000    0.000000    4.233416
Ne    0.000000    0.000000    0.000000
           2
 Time =    2324.0000000000000     
Ne    0.000000    0.000000    4.233416
Ne    0.000000    0.000000    0.000000
           2
 Time =    2325.0000000000000     
Ne    0.000000    0.000000    4.233416
Ne    0.000000    0.000000    0.000000
           2
 Time =    2326.0000000000000     
Ne    0.000000    0.000000    4.233416
Ne    0.000000    0.000000    0.000000
           2
 Time =    2327.0000000000000     
Ne    0.000000    0.000000    4.233416
Ne    0.000000    0.000000    0.000000
           2
 Time =    2328.0000000000000     
Ne    0.000000    0.000000    4.233416
Ne    0.000000    0.000000    0.000000
           2
 Time =    2329.0000000000000     
Ne    0.000000    0.000000    4.233416
Ne    0.000000    0.000000    0.000000
           2
 Time =    2330.0000000000000     
Ne    0.000000    0.000000    4.233416
Ne    0.000000    0.000000    0.000000
           2
 Time =    2331.0000000000000     
Ne    0.000000    0.000000    4.233416
Ne    0.000000    0.000000    0.000000
           2
 Time =    2332.0000000000000     
Ne    0.000000    0.000000    4.233416
Ne    0.000000    0.000000    0.000000
           2
 Time =    2333.0000000000000     
Ne    0.000000    0.000000    4.233416
Ne    0.000000    0.000000    0.000000
           2
 Time =    2334.0000000000000     
Ne    0.000000    0.000000    4.233416
Ne    0.000000    0.000000    0.000000
           2
 Time =    2335.0000000000000     
Ne    0.000000    0.000000    4.233416
Ne    0.000000    0.000000    0.000000
           2
 Time =    2336.0000000000000     
Ne    0.000000    0.000000    4.233416
Ne    0.000000    0.000000    0.000000
           2
 Time =    2337.0000000000000     
Ne    0.000000    0.000000    4.233416
Ne    0.000000    0.000000    0.000000
           2
 Time =    2338.0000000000000     
Ne    0.000000    0.000000    4.233416
Ne    0.000000    0.000000    0.000000
           2
 Time =    2339.0000000000000     
Ne    0.000000    0.000000    4.233416
Ne    0.000000    0.000000    0.000000
           2
 Time =    2340.0000000000000     
Ne    0.000000    0.000000    4.233416
Ne    0.000000    0.000000    0.000000
           2
 Time =    2341.0000000000000     
Ne    0.000000    0.000000    4.233416
Ne    0.000000    0.000000    0.000000
           2
 Time =    2342.0000000000000     
Ne    0.000000    0.000000    4.233416
Ne    0.000000    0.000000    0.000000
           2
 Time =    2343.0000000000000     
Ne    0.000000    0.000000    4.233416
Ne    0.000000    0.000000    0.000000
           2
 Time =    2344.0000000000000     
Ne    0.000000    0.000000    4.233416
Ne    0.000000    0.000000    0.000000
           2
 Time =    2345.0000000000000     
Ne    0.000000    0.000000    4.233416
Ne    0.000000    0.000000    0.000000
           2
 Time =    2346.0000000000000     
Ne    0.000000    0.000000    4.233416
Ne    0.000000    0.000000    0.000000
           2
 Time =    2347.0000000000000     
Ne    0.000000    0.000000    4.233416
Ne    0.000000    0.000000    0.000000
           2
 Time =    2348.0000000000000     
Ne    0.000000    0.000000    4.233416
Ne    0.000000    0.000000    0.000000
           2
 Time =    2349.0000000000000     
Ne    0.000000    0.000000    4.233416
Ne    0.000000    0.000000    0.000000
           2
 Time =    2350.0000000000000     
Ne    0.000000    0.000000    4.233416
Ne    0.000000    0.000000    0.000000
           2
 Time =    2351.0000000000000     
Ne    0.000000    0.000000    4.233416
Ne    0.000000    0.000000    0.000000
           2
 Time =    2352.0000000000000     
Ne    0.000000    0.000000    4.233416
Ne    0.000000    0.000000    0.000000
           2
 Time =    2353.0000000000000     
Ne    0.000000    0.000000    4.233416
Ne    0.000000    0.000000    0.000000
           2
 Time =    2354.0000000000000     
Ne    0.000000    0.000000    4.233416
Ne    0.000000    0.000000    0.000000
           2
 Time =    2355.0000000000000     
Ne    0.000000    0.000000    4.233416
Ne    0.000000    0.000000    0.000000
           2
 Time =    2356.0000000000000     
Ne    0.000000    0.000000    4.233416
Ne    0.000000    0.000000    0.000000
           2
 Time =    2357.0000000000000     
Ne    0.000000    0.000000    4.233416
Ne    0.000000    0.000000    0.000000
           2
 Time =    2358.0000000000000     
Ne    0.000000    0.000000    4.233416
Ne    0.000000    0.000000    0.000000
           2
 Time =    2359.0000000000000     
Ne    0.000000    0.000000    4.233416
Ne    0.000000    0.000000    0.000000
           2
 Time =    2360.0000000000000     
Ne    0.000000    0.000000    4.233416
Ne    0.000000    0.000000    0.000000
           2
 Time =    2361.0000000000000     
Ne    0.000000    0.000000    4.233416
Ne    0.000000    0.000000    0.000000
           2
 Time =    2362.0000000000000     
Ne    0.000000    0.000000    4.233416
Ne    0.000000    0.000000    0.000000
           2
 Time =    2363.0000000000000     
Ne    0.000000    0.000000    4.233416
Ne    0.000000    0.000000    0.000000
           2
 Time =    2364.0000000000000     
Ne    0.000000    0.000000    4.233416
Ne    0.000000    0.000000    0.000000
           2
 Time =    2365.0000000000000     
Ne    0.000000    0.000000    4.233416
Ne    0.000000    0.000000    0.000000
           2
 Time =    2366.0000000000000     
Ne    0.000000    0.000000    4.233416
Ne    0.000000    0.000000    0.000000
           2
 Time =    2367.0000000000000     
Ne    0.000000    0.000000    4.233416
Ne    0.000000    0.000000    0.000000
           2
 Time =    2368.0000000000000     
Ne    0.000000    0.000000    4.233416
Ne    0.000000    0.000000    0.000000
           2
 Time =    2369.0000000000000     
Ne    0.000000    0.000000    4.233416
Ne    0.000000    0.000000    0.000000
           2
 Time =    2370.0000000000000     
Ne    0.000000    0.000000    4.233416
Ne    0.000000    0.000000    0.000000
           2
 Time =    2371.0000000000000     
Ne    0.000000    0.000000    4.233416
Ne    0.000000    0.000000    0.000000
           2
 Time =    2372.0000000000000     
Ne    0.000000    0.000000    4.233416
Ne    0.000000    0.000000    0.000000
           2
 Time =    2373.0000000000000     
Ne    0.000000    0.000000    4.233416
Ne    0.000000    0.000000    0.000000
           2
 Time =    2374.0000000000000     
Ne    0.000000    0.000000    4.233416
Ne    0.000000    0.000000    0.000000
           2
 Time =    2375.0000000000000     
Ne    0.000000    0.000000    4.233416
Ne    0.000000    0.000000    0.000000
           2
 Time =    2376.0000000000000     
Ne    0.000000    0.000000    4.233416
Ne    0.000000    0.000000    0.000000
           2
 Time =    2377.0000000000000     
Ne    0.000000    0.000000    4.233416
Ne    0.000000    0.000000    0.000000
           2
 Time =    2378.0000000000000     
Ne    0.000000    0.000000    4.233416
Ne    0.000000    0.000000    0.000000
           2
 Time =    2379.0000000000000     
Ne    0.000000    0.000000    4.233416
Ne    0.000000    0.000000    0.000000
           2
 Time =    2380.0000000000000     
Ne    0.000000    0.000000    4.233416
Ne    0.000000    0.000000    0.000000
           2
 Time =    2381.0000000000000     
Ne    0.000000    0.000000    4.233416
Ne    0.000000    0.000000    0.000000
           2
 Time =    2382.0000000000000     
Ne    0.000000    0.000000    4.233416
Ne    0.000000    0.000000    0.000000
           2
 Time =    2383.0000000000000     
Ne    0.000000    0.000000    4.233416
Ne    0.000000    0.000000    0.000000
           2
 Time =    2384.0000000000000     
Ne    0.000000    0.000000    4.233416
Ne    0.000000    0.000000    0.000000
           2
 Time =    2385.0000000000000     
Ne    0.000000    0.000000    4.233416
Ne    0.000000    0.000000    0.000000
           2
 Time =    2386.0000000000000     
Ne    0.000000    0.000000    4.233416
Ne    0.000000    0.000000    0.000000
           2
 Time =    2387.0000000000000     
Ne    0.000000    0.000000    4.233416
Ne    0.000000    0.000000    0.000000
           2
 Time =    2388.0000000000000     
Ne    0.000000    0.000000    4.233416
Ne    0.000000    0.000000    0.000000
           2
 Time =    2389.0000000000000     
Ne    0.000000    0.000000    4.233416
Ne    0.000000    0.000000    0.000000
           2
 Time =    2390.0000000000000     
Ne    0.000000    0.000000    4.233416
Ne    0.000000    0.000000    0.000000
           2
 Time =    2391.0000000000000     
Ne    0.000000    0.000000    4.233416
Ne    0.000000    0.000000    0.000000
           2
 Time =    2392.0000000000000     
Ne    0.000000    0.000000    4.233416
Ne    0.000000    0.000000    0.000000
           2
 Time =    2393.0000000000000     
Ne    0.000000    0.000000    4.233416
Ne    0.000000    0.000000    0.000000
           2
 Time =    2394.0000000000000     
Ne    0.000000    0.000000    4.233416
Ne    0.000000    0.000000    0.000000
           2
 Time =    2395.0000000000000     
Ne    0.000000    0.000000    4.233416
Ne    0.000000    0.000000    0.000000
           2
 Time =    2396.0000000000000     
Ne    0.000000    0.000000    4.233416
Ne    0.000000    0.000000    0.000000
           2
 Time =    2397.0000000000000     
Ne    0.000000    0.000000    4.233416
Ne    0.000000    0.000000    0.000000
           2
 Time =    2398.0000000000000     
Ne    0.000000    0.000000    4.233416
Ne    0.000000    0.000000    0.000000
           2
 Time =    2399.0000000000000     
Ne    0.000000    0.000000    4.233416
Ne    0.000000    0.000000    0.000000
           2
 Time =    2400.0000000000000     
Ne    0.000000    0.000000    4.233416
Ne    0.000000    0.000000    0.000000
           2
 Time =    2401.0000000000000     
Ne    0.000000    0.000000    4.233416
Ne    0.000000    0.000000    0.000000
           2
 Time =    2402.0000000000000     
Ne    0.000000    0.000000    4.233416
Ne    0.000000    0.000000    0.000000
           2
 Time =    2403.0000000000000     
Ne    0.000000    0.000000    4.233416
Ne    0.000000    0.000000    0.000000
           2
 Time =    2404.0000000000000     
Ne    0.000000    0.000000    4.233416
Ne    0.000000    0.000000    0.000000
           2
 Time =    2405.0000000000000     
Ne    0.000000    0.000000    4.233416
Ne    0.000000    0.000000    0.000000
           2
 Time =    2406.0000000000000     
Ne    0.000000    0.000000    4.233416
Ne    0.000000    0.000000    0.000000
           2
 Time =    2407.0000000000000     
Ne    0.000000    0.000000    4.233416
Ne    0.000000    0.000000    0.000000
           2
 Time =    2408.0000000000000     
Ne    0.000000    0.000000    4.233416
Ne    0.000000    0.000000    0.000000
           2
 Time =    2409.0000000000000     
Ne    0.000000    0.000000    4.233416
Ne    0.000000    0.000000    0.000000
           2
 Time =    2410.0000000000000     
Ne    0.000000    0.000000    4.233416
Ne    0.000000    0.000000    0.000000
           2
 Time =    2411.0000000000000     
Ne    0.000000    0.000000    4.233416
Ne    0.000000    0.000000    0.000000
           2
 Time =    2412.0000000000000     
Ne    0.000000    0.000000    4.233416
Ne    0.000000    0.000000    0.000000
           2
 Time =    2413.0000000000000     
Ne    0.000000    0.000000    4.233416
Ne    0.000000    0.000000    0.000000
           2
 Time =    2414.0000000000000     
Ne    0.000000    0.000000    4.233416
Ne    0.000000    0.000000    0.000000
           2
 Time =    2415.0000000000000     
Ne    0.000000    0.000000    4.233416
Ne    0.000000    0.000000    0.000000
           2
 Time =    2416.0000000000000     
Ne    0.000000    0.000000    4.233416
Ne    0.000000    0.000000    0.000000
           2
 Time =    2417.0000000000000     
Ne    0.000000    0.000000    4.233416
Ne    0.000000    0.000000    0.000000
           2
 Time =    2418.0000000000000     
Ne    0.000000    0.000000    4.233416
Ne    0.000000    0.000000    0.000000
           2
 Time =    2419.0000000000000     
Ne    0.000000    0.000000    4.233416
Ne    0.000000    0.000000    0.000000
           2
 Time =    2420.0000000000000     
Ne    0.000000    0.000000    4.233416
Ne    0.000000    0.000000    0.000000
           2
 Time =    2421.0000000000000     
Ne    0.000000    0.000000    4.233416
Ne    0.000000    0.000000    0.000000
           2
 Time =    2422.0000000000000     
Ne    0.000000    0.000000    4.233416
Ne    0.000000    0.000000    0.000000
           2
 Time =    2423.0000000000000     
Ne    0.000000    0.000000    4.233416
Ne    0.000000    0.000000    0.000000
           2
 Time =    2424.0000000000000     
Ne    0.000000    0.000000    4.233416
Ne    0.000000    0.000000    0.000000
           2
 Time =    2425.0000000000000     
Ne    0.000000    0.000000    4.233416
Ne    0.000000    0.000000    0.000000
           2
 Time =    2426.0000000000000     
Ne    0.000000    0.000000    4.233416
Ne    0.000000    0.000000    0.000000
           2
 Time =    2427.0000000000000     
Ne    0.000000    0.000000    4.233416
Ne    0.000000    0.000000    0.000000
           2
 Time =    2428.0000000000000     
Ne    0.000000    0.000000    4.233416
Ne    0.000000    0.000000    0.000000
           2
 Time =    2429.0000000000000     
Ne    0.000000    0.000000    4.233416
Ne    0.000000    0.000000    0.000000
           2
 Time =    2430.0000000000000     
Ne    0.000000    0.000000    4.233416
Ne    0.000000    0.000000    0.000000
           2
 Time =    2431.0000000000000     
Ne    0.000000    0.000000    4.233416
Ne    0.000000    0.000000    0.000000
           2
 Time =    2432.0000000000000     
Ne    0.000000    0.000000    4.233416
Ne    0.000000    0.000000    0.000000
           2
 Time =    2433.0000000000000     
Ne    0.000000    0.000000    4.233416
Ne    0.000000    0.000000    0.000000
           2
 Time =    2434.0000000000000     
Ne    0.000000    0.000000    4.233416
Ne    0.000000    0.000000    0.000000
           2
 Time =    2435.0000000000000     
Ne    0.000000    0.000000    4.233416
Ne    0.000000    0.000000    0.000000
           2
 Time =    2436.0000000000000     
Ne    0.000000    0.000000    4.233416
Ne    0.000000    0.000000    0.000000
           2
 Time =    2437.0000000000000     
Ne    0.000000    0.000000    4.233416
Ne    0.000000    0.000000    0.000000
           2
 Time =    2438.0000000000000     
Ne    0.000000    0.000000    4.233416
Ne    0.000000    0.000000    0.000000
           2
 Time =    2439.0000000000000     
Ne    0.000000    0.000000    4.233416
Ne    0.000000    0.000000    0.000000
           2
 Time =    2440.0000000000000     
Ne    0.000000    0.000000    4.233416
Ne    0.000000    0.000000    0.000000
           2
 Time =    2441.0000000000000     
Ne    0.000000    0.000000    4.233416
Ne    0.000000    0.000000    0.000000
           2
 Time =    2442.0000000000000     
Ne    0.000000    0.000000    4.233416
Ne    0.000000    0.000000    0.000000
           2
 Time =    2443.0000000000000     
Ne    0.000000    0.000000    4.233416
Ne    0.000000    0.000000    0.000000
           2
 Time =    2444.0000000000000     
Ne    0.000000    0.000000    4.233416
Ne    0.000000    0.000000    0.000000
           2
 Time =    2445.0000000000000     
Ne    0.000000    0.000000    4.233416
Ne    0.000000    0.000000    0.000000
           2
 Time =    2446.0000000000000     
Ne    0.000000    0.000000    4.233416
Ne    0.000000    0.000000    0.000000
           2
 Time =    2447.0000000000000     
Ne    0.000000    0.000000    4.233416
Ne    0.000000    0.000000    0.000000
           2
 Time =    2448.0000000000000     
Ne    0.000000    0.000000    4.233416
Ne    0.000000    0.000000    0.000000
           2
 Time =    2449.0000000000000     
Ne    0.000000    0.000000    4.233416
Ne    0.000000    0.000000    0.000000
           2
 Time =    2450.0000000000000     
Ne    0.000000    0.000000    4.233416
Ne    0.000000    0.000000    0.000000
           2
 Time =    2451.0000000000000     
Ne    0.000000    0.000000    4.233416
Ne    0.000000    0.000000    0.000000
           2
 Time =    2452.0000000000000     
Ne    0.000000    0.000000    4.233416
Ne    0.000000    0.000000    0.000000
           2
 Time =    2453.0000000000000     
Ne    0.000000    0.000000    4.233416
Ne    0.000000    0.000000    0.000000
           2
 Time =    2454.0000000000000     
Ne    0.000000    0.000000    4.233416
Ne    0.000000    0.000000    0.000000
           2
 Time =    2455.0000000000000     
Ne    0.000000    0.000000    4.233416
Ne    0.000000    0.000000    0.000000
           2
 Time =    2456.0000000000000     
Ne    0.000000    0.000000    4.233416
Ne    0.000000    0.000000    0.000000
           2
 Time =    2457.0000000000000     
Ne    0.000000    0.000000    4.233416
Ne    0.000000    0.000000    0.000000
           2
 Time =    2458.0000000000000     
Ne    0.000000    0.000000    4.233416
Ne    0.000000    0.000000    0.000000
           2
 Time =    2459.0000000000000     
Ne    0.000000    0.000000    4.233416
Ne    0.000000    0.000000    0.000000
           2
 Time =    2460.0000000000000     
Ne    0.000000    0.000000    4.233416
Ne    0.000000    0.000000    0.000000
           2
 Time =    2461.0000000000000     
Ne    0.000000    0.000000    4.233416
Ne    0.000000    0.000000    0.000000
           2
 Time =    2462.0000000000000     
Ne    0.000000    0.000000    4.233416
Ne    0.000000    0.000000    0.000000
           2
 Time =    2463.0000000000000     
Ne    0.000000    0.000000    4.233416
Ne    0.000000    0.000000    0.000000
           2
 Time =    2464.0000000000000     
Ne    0.000000    0.000000    4.233416
Ne    0.000000    0.000000    0.000000
           2
 Time =    2465.0000000000000     
Ne    0.000000    0.000000    4.233416
Ne    0.000000    0.000000    0.000000
           2
 Time =    2466.0000000000000     
Ne    0.000000    0.000000    4.233416
Ne    0.000000    0.000000    0.000000
           2
 Time =    2467.0000000000000     
Ne    0.000000    0.000000    4.233416
Ne    0.000000    0.000000    0.000000
           2
 Time =    2468.0000000000000     
Ne    0.000000    0.000000    4.233416
Ne    0.000000    0.000000    0.000000
           2
 Time =    2469.0000000000000     
Ne    0.000000    0.000000    4.233416
Ne    0.000000    0.000000    0.000000
           2
 Time =    2470.0000000000000     
Ne    0.000000    0.000000    4.233416
Ne    0.000000    0.000000    0.000000
           2
 Time =    2471.0000000000000     
Ne    0.000000    0.000000    4.233416
Ne    0.000000    0.000000    0.000000
           2
 Time =    2472.0000000000000     
Ne    0.000000    0.000000    4.233416
Ne    0.000000    0.000000    0.000000
           2
 Time =    2473.0000000000000     
Ne    0.000000    0.000000    4.233416
Ne    0.000000    0.000000    0.000000
           2
 Time =    2474.0000000000000     
Ne    0.000000    0.000000    4.233416
Ne    0.000000    0.000000    0.000000
           2
 Time =    2475.0000000000000     
Ne    0.000000    0.000000    4.233416
Ne    0.000000    0.000000    0.000000
           2
 Time =    2476.0000000000000     
Ne    0.000000    0.000000    4.233416
Ne    0.000000    0.000000    0.000000
           2
 Time =    2477.0000000000000     
Ne    0.000000    0.000000    4.233416
Ne    0.000000    0.000000    0.000000
           2
 Time =    2478.0000000000000     
Ne    0.000000    0.000000    4.233416
Ne    0.000000    0.000000    0.000000
           2
 Time =    2479.0000000000000     
Ne    0.000000    0.000000    4.233416
Ne    0.000000    0.000000    0.000000
           2
 Time =    2480.0000000000000     
Ne    0.000000    0.000000    4.233416
Ne    0.000000    0.000000    0.000000
           2
 Time =    2481.0000000000000     
Ne    0.000000    0.000000    4.233416
Ne    0.000000    0.000000    0.000000
           2
 Time =    2482.0000000000000     
Ne    0.000000    0.000000    4.233416
Ne    0.000000    0.000000    0.000000
           2
 Time =    2483.0000000000000     
Ne    0.000000    0.000000    4.233416
Ne    0.000000    0.000000    0.000000
           2
 Time =    2484.0000000000000     
Ne    0.000000    0.000000    4.233416
Ne    0.000000    0.000000    0.000000
           2
 Time =    2485.0000000000000     
Ne    0.000000    0.000000    4.233416
Ne    0.000000    0.000000    0.000000
           2
 Time =    2486.0000000000000     
Ne    0.000000    0.000000    4.233416
Ne    0.000000    0.000000    0.000000
           2
 Time =    2487.0000000000000     
Ne    0.000000    0.000000    4.233416
Ne    0.000000    0.000000    0.000000
           2
 Time =    2488.0000000000000     
Ne    0.000000    0.000000    4.233416
Ne    0.000000    0.000000    0.000000
           2
 Time =    2489.0000000000000     
Ne    0.000000    0.000000    4.233416
Ne    0.000000    0.000000    0.000000
           2
 Time =    2490.0000000000000     
Ne    0.000000    0.000000    4.233416
Ne    0.000000    0.000000    0.000000
           2
 Time =    2491.0000000000000     
Ne    0.000000    0.000000    4.233416
Ne    0.000000    0.000000    0.000000
           2
 Time =    2492.0000000000000     
Ne    0.000000    0.000000    4.233416
Ne    0.000000    0.000000    0.000000
           2
 Time =    2493.0000000000000     
Ne    0.000000    0.000000    4.233416
Ne    0.000000    0.000000    0.000000
           2
 Time =    2494.0000000000000     
Ne    0.000000    0.000000    4.233416
Ne    0.000000    0.000000    0.000000
           2
 Time =    2495.0000000000000     
Ne    0.000000    0.000000    4.233416
Ne    0.000000    0.000000    0.000000
           2
 Time =    2496.0000000000000     
Ne    0.000000    0.000000    4.233416
Ne    0.000000    0.000000    0.000000
           2
 Time =    2497.0000000000000     
Ne    0.000000    0.000000    4.233416
Ne    0.000000    0.000000    0.000000
           2
 Time =    2498.0000000000000     
Ne    0.000000    0.000000    4.233416
Ne    0.000000    0.000000    0.000000
           2
 Time =    2499.0000000000000     
Ne    0.000000    0.000000    4.233416
Ne    0.000000    0.000000    0.000000
           2
 Time =    2500.0000000000000     
Ne    0.000000    0.000000    4.233416
Ne    0.000000    0.000000    0.000000
           2
 Time =    2501.0000000000000     
Ne    0.000000    0.000000    4.233416
Ne    0.000000    0.000000    0.000000
           2
 Time =    2502.0000000000000     
Ne    0.000000    0.000000    4.233416
Ne    0.000000    0.000000    0.000000
           2
 Time =    2503.0000000000000     
Ne    0.000000    0.000000    4.233416
Ne    0.000000    0.000000    0.000000
           2
 Time =    2504.0000000000000     
Ne    0.000000    0.000000    4.233416
Ne    0.000000    0.000000    0.000000
           2
 Time =    2505.0000000000000     
Ne    0.000000    0.000000    4.233416
Ne    0.000000    0.000000    0.000000
           2
 Time =    2506.0000000000000     
Ne    0.000000    0.000000    4.233416
Ne    0.000000    0.000000    0.000000
           2
 Time =    2507.0000000000000     
Ne    0.000000    0.000000    4.233416
Ne    0.000000    0.000000    0.000000
           2
 Time =    2508.0000000000000     
Ne    0.000000    0.000000    4.233416
Ne    0.000000    0.000000    0.000000
           2
 Time =    2509.0000000000000     
Ne    0.000000    0.000000    4.233416
Ne    0.000000    0.000000    0.000000
           2
 Time =    2510.0000000000000     
Ne    0.000000    0.000000    4.233416
Ne    0.000000    0.000000    0.000000
           2
 Time =    2511.0000000000000     
Ne    0.000000    0.000000    4.233416
Ne    0.000000    0.000000    0.000000
           2
 Time =    2512.0000000000000     
Ne    0.000000    0.000000    4.233416
Ne    0.000000    0.000000    0.000000
           2
 Time =    2513.0000000000000     
Ne    0.000000    0.000000    4.233416
Ne    0.000000    0.000000    0.000000
           2
 Time =    2514.0000000000000     
Ne    0.000000    0.000000    4.233416
Ne    0.000000    0.000000    0.000000
           2
 Time =    2515.0000000000000     
Ne    0.000000    0.000000    4.233416
Ne    0.000000    0.000000    0.000000
           2
 Time =    2516.0000000000000     
Ne    0.000000    0.000000    4.233416
Ne    0.000000    0.000000    0.000000
           2
 Time =    2517.0000000000000     
Ne    0.000000    0.000000    4.233416
Ne    0.000000    0.000000    0.000000
           2
 Time =    2518.0000000000000     
Ne    0.000000    0.000000    4.233416
Ne    0.000000    0.000000    0.000000
           2
 Time =    2519.0000000000000     
Ne    0.000000    0.000000    4.233416
Ne    0.000000    0.000000    0.000000
           2
 Time =    2520.0000000000000     
Ne    0.000000    0.000000    4.233416
Ne    0.000000    0.000000    0.000000
           2
 Time =    2521.0000000000000     
Ne    0.000000    0.000000    4.233416
Ne    0.000000    0.000000    0.000000
           2
 Time =    2522.0000000000000     
Ne    0.000000    0.000000    4.233416
Ne    0.000000    0.000000    0.000000
           2
 Time =    2523.0000000000000     
Ne    0.000000    0.000000    4.233416
Ne    0.000000    0.000000    0.000000
           2
 Time =    2524.0000000000000     
Ne    0.000000    0.000000    4.233416
Ne    0.000000    0.000000    0.000000
           2
 Time =    2525.0000000000000     
Ne    0.000000    0.000000    4.233416
Ne    0.000000    0.000000    0.000000
           2
 Time =    2526.0000000000000     
Ne    0.000000    0.000000    4.233416
Ne    0.000000    0.000000    0.000000
           2
 Time =    2527.0000000000000     
Ne    0.000000    0.000000    4.233416
Ne    0.000000    0.000000    0.000000
           2
 Time =    2528.0000000000000     
Ne    0.000000    0.000000    4.233416
Ne    0.000000    0.000000    0.000000
           2
 Time =    2529.0000000000000     
Ne    0.000000    0.000000    4.233416
Ne    0.000000    0.000000    0.000000
           2
 Time =    2530.0000000000000     
Ne    0.000000    0.000000    4.233416
Ne    0.000000    0.000000    0.000000
           2
 Time =    2531.0000000000000     
Ne    0.000000    0.000000    4.233416
Ne    0.000000    0.000000    0.000000
           2
 Time =    2532.0000000000000     
Ne    0.000000    0.000000    4.233416
Ne    0.000000    0.000000    0.000000
           2
 Time =    2533.0000000000000     
Ne    0.000000    0.000000    4.233416
Ne    0.000000    0.000000    0.000000
           2
 Time =    2534.0000000000000     
Ne    0.000000    0.000000    4.233416
Ne    0.000000    0.000000    0.000000
           2
 Time =    2535.0000000000000     
Ne    0.000000    0.000000    4.233416
Ne    0.000000    0.000000    0.000000
           2
 Time =    2536.0000000000000     
Ne    0.000000    0.000000    4.233416
Ne    0.000000    0.000000    0.000000
           2
 Time =    2537.0000000000000     
Ne    0.000000    0.000000    4.233416
Ne    0.000000    0.000000    0.000000
           2
 Time =    2538.0000000000000     
Ne    0.000000    0.000000    4.233416
Ne    0.000000    0.000000    0.000000
           2
 Time =    2539.0000000000000     
Ne    0.000000    0.000000    4.233416
Ne    0.000000    0.000000    0.000000
           2
 Time =    2540.0000000000000     
Ne    0.000000    0.000000    4.233416
Ne    0.000000    0.000000    0.000000
           2
 Time =    2541.0000000000000     
Ne    0.000000    0.000000    4.233416
Ne    0.000000    0.000000    0.000000
           2
 Time =    2542.0000000000000     
Ne    0.000000    0.000000    4.233416
Ne    0.000000    0.000000    0.000000
           2
 Time =    2543.0000000000000     
Ne    0.000000    0.000000    4.233416
Ne    0.000000    0.000000    0.000000
           2
 Time =    2544.0000000000000     
Ne    0.000000    0.000000    4.233416
Ne    0.000000    0.000000    0.000000
           2
 Time =    2545.0000000000000     
Ne    0.000000    0.000000    4.233416
Ne    0.000000    0.000000    0.000000
           2
 Time =    2546.0000000000000     
Ne    0.000000    0.000000    4.233416
Ne    0.000000    0.000000    0.000000
           2
 Time =    2547.0000000000000     
Ne    0.000000    0.000000    4.233416
Ne    0.000000    0.000000    0.000000
           2
 Time =    2548.0000000000000     
Ne    0.000000    0.000000    4.233416
Ne    0.000000    0.000000    0.000000
           2
 Time =    2549.0000000000000     
Ne    0.000000    0.000000    4.233416
Ne    0.000000    0.000000    0.000000
           2
 Time =    2550.0000000000000     
Ne    0.000000    0.000000    4.233416
Ne    0.000000    0.000000    0.000000
           2
 Time =    2551.0000000000000     
Ne    0.000000    0.000000    4.233416
Ne    0.000000    0.000000    0.000000
           2
 Time =    2552.0000000000000     
Ne    0.000000    0.000000    4.233416
Ne    0.000000    0.000000    0.000000
           2
 Time =    2553.0000000000000     
Ne    0.000000    0.000000    4.233416
Ne    0.000000    0.000000    0.000000
           2
 Time =    2554.0000000000000     
Ne    0.000000    0.000000    4.233416
Ne    0.000000    0.000000    0.000000
           2
 Time =    2555.0000000000000     
Ne    0.000000    0.000000    4.233416
Ne    0.000000    0.000000    0.000000
           2
 Time =    2556.0000000000000     
Ne    0.000000    0.000000    4.233416
Ne    0.000000    0.000000    0.000000
           2
 Time =    2557.0000000000000     
Ne    0.000000    0.000000    4.233416
Ne    0.000000    0.000000    0.000000
           2
 Time =    2558.0000000000000     
Ne    0.000000    0.000000    4.233416
Ne    0.000000    0.000000    0.000000
           2
 Time =    2559.0000000000000     
Ne    0.000000    0.000000    4.233416
Ne    0.000000    0.000000    0.000000
           2
 Time =    2560.0000000000000     
Ne    0.000000    0.000000    4.233416
Ne    0.000000    0.000000    0.000000
           2
 Time =    2561.0000000000000     
Ne    0.000000    0.000000    4.233416
Ne    0.000000    0.000000    0.000000
           2
 Time =    2562.0000000000000     
Ne    0.000000    0.000000    4.233416
Ne    0.000000    0.000000    0.000000
           2
 Time =    2563.0000000000000     
Ne    0.000000    0.000000    4.233416
Ne    0.000000    0.000000    0.000000
           2
 Time =    2564.0000000000000     
Ne    0.000000    0.000000    4.233416
Ne    0.000000    0.000000    0.000000
           2
 Time =    2565.0000000000000     
Ne    0.000000    0.000000    4.233416
Ne    0.000000    0.000000    0.000000
           2
 Time =    2566.0000000000000     
Ne    0.000000    0.000000    4.233416
Ne    0.000000    0.000000    0.000000
           2
 Time =    2567.0000000000000     
Ne    0.000000    0.000000    4.233416
Ne    0.000000    0.000000    0.000000
           2
 Time =    2568.0000000000000     
Ne    0.000000    0.000000    4.233416
Ne    0.000000    0.000000    0.000000
           2
 Time =    2569.0000000000000     
Ne    0.000000    0.000000    4.233416
Ne    0.000000    0.000000    0.000000
           2
 Time =    2570.0000000000000     
Ne    0.000000    0.000000    4.233416
Ne    0.000000    0.000000    0.000000
           2
 Time =    2571.0000000000000     
Ne    0.000000    0.000000    4.233416
Ne    0.000000    0.000000    0.000000
           2
 Time =    2572.0000000000000     
Ne    0.000000    0.000000    4.233416
Ne    0.000000    0.000000    0.000000
           2
 Time =    2573.0000000000000     
Ne    0.000000    0.000000    4.233416
Ne    0.000000    0.000000    0.000000
           2
 Time =    2574.0000000000000     
Ne    0.000000    0.000000    4.233416
Ne    0.000000    0.000000    0.000000
           2
 Time =    2575.0000000000000     
Ne    0.000000    0.000000    4.233416
Ne    0.000000    0.000000    0.000000
           2
 Time =    2576.0000000000000     
Ne    0.000000    0.000000    4.233416
Ne    0.000000    0.000000    0.000000
           2
 Time =    2577.0000000000000     
Ne    0.000000    0.000000    4.233416
Ne    0.000000    0.000000    0.000000
           2
 Time =    2578.0000000000000     
Ne    0.000000    0.000000    4.233416
Ne    0.000000    0.000000    0.000000
           2
 Time =    2579.0000000000000     
Ne    0.000000    0.000000    4.233416
Ne    0.000000    0.000000    0.000000
           2
 Time =    2580.0000000000000     
Ne    0.000000    0.000000    4.233416
Ne    0.000000    0.000000    0.000000
           2
 Time =    2581.0000000000000     
Ne    0.000000    0.000000    4.233416
Ne    0.000000    0.000000    0.000000
           2
 Time =    2582.0000000000000     
Ne    0.000000    0.000000    4.233416
Ne    0.000000    0.000000    0.000000
           2
 Time =    2583.0000000000000     
Ne    0.000000    0.000000    4.233416
Ne    0.000000    0.000000    0.000000
           2
 Time =    2584.0000000000000     
Ne    0.000000    0.000000    4.233416
Ne    0.000000    0.000000    0.000000
           2
 Time =    2585.0000000000000     
Ne    0.000000    0.000000    4.233416
Ne    0.000000    0.000000    0.000000
           2
 Time =    2586.0000000000000     
Ne    0.000000    0.000000    4.233416
Ne    0.000000    0.000000    0.000000
           2
 Time =    2587.0000000000000     
Ne    0.000000    0.000000    4.233416
Ne    0.000000    0.000000    0.000000
           2
 Time =    2588.0000000000000     
Ne    0.000000    0.000000    4.233416
Ne    0.000000    0.000000    0.000000
           2
 Time =    2589.0000000000000     
Ne    0.000000    0.000000    4.233416
Ne    0.000000    0.000000    0.000000
           2
 Time =    2590.0000000000000     
Ne    0.000000    0.000000    4.233416
Ne    0.000000    0.000000    0.000000
           2
 Time =    2591.0000000000000     
Ne    0.000000    0.000000    4.233416
Ne    0.000000    0.000000    0.000000
           2
 Time =    2592.0000000000000     
Ne    0.000000    0.000000    4.233416
Ne    0.000000    0.000000    0.000000
           2
 Time =    2593.0000000000000     
Ne    0.000000    0.000000    4.233416
Ne    0.000000    0.000000    0.000000
           2
 Time =    2594.0000000000000     
Ne    0.000000    0.000000    4.233416
Ne    0.000000    0.000000    0.000000
           2
 Time =    2595.0000000000000     
Ne    0.000000    0.000000    4.233416
Ne    0.000000    0.000000    0.000000
           2
 Time =    2596.0000000000000     
Ne    0.000000    0.000000    4.233416
Ne    0.000000    0.000000    0.000000
           2
 Time =    2597.0000000000000     
Ne    0.000000    0.000000    4.233416
Ne    0.000000    0.000000    0.000000
           2
 Time =    2598.0000000000000     
Ne    0.000000    0.000000    4.233416
Ne    0.000000    0.000000    0.000000
           2
 Time =    2599.0000000000000     
Ne    0.000000    0.000000    4.233416
Ne    0.000000    0.000000    0.000000
           2
 Time =    2600.0000000000000     
Ne    0.000000    0.000000    4.233416
Ne    0.000000    0.000000    0.000000
           2
 Time =    2601.0000000000000     
Ne    0.000000    0.000000    4.233416
Ne    0.000000    0.000000    0.000000
           2
 Time =    2602.0000000000000     
Ne    0.000000    0.000000    4.233416
Ne    0.000000    0.000000    0.000000
           2
 Time =    2603.0000000000000     
Ne    0.000000    0.000000    4.233416
Ne    0.000000    0.000000    0.000000
           2
 Time =    2604.0000000000000     
Ne    0.000000    0.000000    4.233416
Ne    0.000000    0.000000    0.000000
           2
 Time =    2605.0000000000000     
Ne    0.000000    0.000000    4.233416
Ne    0.000000    0.000000    0.000000
           2
 Time =    2606.0000000000000     
Ne    0.000000    0.000000    4.233416
Ne    0.000000    0.000000    0.000000
           2
 Time =    2607.0000000000000     
Ne    0.000000    0.000000    4.233416
Ne    0.000000    0.000000    0.000000
           2
 Time =    2608.0000000000000     
Ne    0.000000    0.000000    4.233416
Ne    0.000000    0.000000    0.000000
           2
 Time =    2609.0000000000000     
Ne    0.000000    0.000000    4.233416
Ne    0.000000    0.000000    0.000000
           2
 Time =    2610.0000000000000     
Ne    0.000000    0.000000    4.233416
Ne    0.000000    0.000000    0.000000
           2
 Time =    2611.0000000000000     
Ne    0.000000    0.000000    4.233416
Ne    0.000000    0.000000    0.000000
           2
 Time =    2612.0000000000000     
Ne    0.000000    0.000000    4.233416
Ne    0.000000    0.000000    0.000000
           2
 Time =    2613.0000000000000     
Ne    0.000000    0.000000    4.233416
Ne    0.000000    0.000000    0.000000
           2
 Time =    2614.0000000000000     
Ne    0.000000    0.000000    4.233416
Ne    0.000000    0.000000    0.000000
           2
 Time =    2615.0000000000000     
Ne    0.000000    0.000000    4.233416
Ne    0.000000    0.000000    0.000000
           2
 Time =    2616.0000000000000     
Ne    0.000000    0.000000    4.233416
Ne    0.000000    0.000000    0.000000
           2
 Time =    2617.0000000000000     
Ne    0.000000    0.000000    4.233416
Ne    0.000000    0.000000    0.000000
           2
 Time =    2618.0000000000000     
Ne    0.000000    0.000000    4.233416
Ne    0.000000    0.000000    0.000000
           2
 Time =    2619.0000000000000     
Ne    0.000000    0.000000    4.233416
Ne    0.000000    0.000000    0.000000
           2
 Time =    2620.0000000000000     
Ne    0.000000    0.000000    4.233416
Ne    0.000000    0.000000    0.000000
           2
 Time =    2621.0000000000000     
Ne    0.000000    0.000000    4.233416
Ne    0.000000    0.000000    0.000000
           2
 Time =    2622.0000000000000     
Ne    0.000000    0.000000    4.233416
Ne    0.000000    0.000000    0.000000
           2
 Time =    2623.0000000000000     
Ne    0.000000    0.000000    4.233416
Ne    0.000000    0.000000    0.000000
           2
 Time =    2624.0000000000000     
Ne    0.000000    0.000000    4.233416
Ne    0.000000    0.000000    0.000000
           2
 Time =    2625.0000000000000     
Ne    0.000000    0.000000    4.233416
Ne    0.000000    0.000000    0.000000
           2
 Time =    2626.0000000000000     
Ne    0.000000    0.000000    4.233416
Ne    0.000000    0.000000    0.000000
           2
 Time =    2627.0000000000000     
Ne    0.000000    0.000000    4.233416
Ne    0.000000    0.000000    0.000000
           2
 Time =    2628.0000000000000     
Ne    0.000000    0.000000    4.233416
Ne    0.000000    0.000000    0.000000
           2
 Time =    2629.0000000000000     
Ne    0.000000    0.000000    4.233416
Ne    0.000000    0.000000    0.000000
           2
 Time =    2630.0000000000000     
Ne    0.000000    0.000000    4.233416
Ne    0.000000    0.000000    0.000000
           2
 Time =    2631.0000000000000     
Ne    0.000000    0.000000    4.233416
Ne    0.000000    0.000000    0.000000
           2
 Time =    2632.0000000000000     
Ne    0.000000    0.000000    4.233416
Ne    0.000000    0.000000    0.000000
           2
 Time =    2633.0000000000000     
Ne    0.000000    0.000000    4.233416
Ne    0.000000    0.000000    0.000000
           2
 Time =    2634.0000000000000     
Ne    0.000000    0.000000    4.233416
Ne    0.000000    0.000000    0.000000
           2
 Time =    2635.0000000000000     
Ne    0.000000    0.000000    4.233416
Ne    0.000000    0.000000    0.000000
           2
 Time =    2636.0000000000000     
Ne    0.000000    0.000000    4.233416
Ne    0.000000    0.000000    0.000000
           2
 Time =    2637.0000000000000     
Ne    0.000000    0.000000    4.233416
Ne    0.000000    0.000000    0.000000
           2
 Time =    2638.0000000000000     
Ne    0.000000    0.000000    4.233416
Ne    0.000000    0.000000    0.000000
           2
 Time =    2639.0000000000000     
Ne    0.000000    0.000000    4.233416
Ne    0.000000    0.000000    0.000000
           2
 Time =    2640.0000000000000     
Ne    0.000000    0.000000    4.233416
Ne    0.000000    0.000000    0.000000
           2
 Time =    2641.0000000000000     
Ne    0.000000    0.000000    4.233416
Ne    0.000000    0.000000    0.000000
           2
 Time =    2642.0000000000000     
Ne    0.000000    0.000000    4.233416
Ne    0.000000    0.000000    0.000000
           2
 Time =    2643.0000000000000     
Ne    0.000000    0.000000    4.233416
Ne    0.000000    0.000000    0.000000
           2
 Time =    2644.0000000000000     
Ne    0.000000    0.000000    4.233416
Ne    0.000000    0.000000    0.000000
           2
 Time =    2645.0000000000000     
Ne    0.000000    0.000000    4.233416
Ne    0.000000    0.000000    0.000000
           2
 Time =    2646.0000000000000     
Ne    0.000000    0.000000    4.233416
Ne    0.000000    0.000000    0.000000
           2
 Time =    2647.0000000000000     
Ne    0.000000    0.000000    4.233416
Ne    0.000000    0.000000    0.000000
           2
 Time =    2648.0000000000000     
Ne    0.000000    0.000000    4.233416
Ne    0.000000    0.000000    0.000000
           2
 Time =    2649.0000000000000     
Ne    0.000000    0.000000    4.233416
Ne    0.000000    0.000000    0.000000
           2
 Time =    2650.0000000000000     
Ne    0.000000    0.000000    4.233416
Ne    0.000000    0.000000    0.000000
           2
 Time =    2651.0000000000000     
Ne    0.000000    0.000000    4.233416
Ne    0.000000    0.000000    0.000000
           2
 Time =    2652.0000000000000     
Ne    0.000000    0.000000    4.233416
Ne    0.000000    0.000000    0.000000
           2
 Time =    2653.0000000000000     
Ne    0.000000    0.000000    4.233416
Ne    0.000000    0.000000    0.000000
           2
 Time =    2654.0000000000000     
Ne    0.000000    0.000000    4.233416
Ne    0.000000    0.000000    0.000000
           2
 Time =    2655.0000000000000     
Ne    0.000000    0.000000    4.233416
Ne    0.000000    0.000000    0.000000
           2
 Time =    2656.0000000000000     
Ne    0.000000    0.000000    4.233416
Ne    0.000000    0.000000    0.000000
           2
 Time =    2657.0000000000000     
Ne    0.000000    0.000000    4.233416
Ne    0.000000    0.000000    0.000000
           2
 Time =    2658.0000000000000     
Ne    0.000000    0.000000    4.233416
Ne    0.000000    0.000000    0.000000
           2
 Time =    2659.0000000000000     
Ne    0.000000    0.000000    4.233416
Ne    0.000000    0.000000    0.000000
           2
 Time =    2660.0000000000000     
Ne    0.000000    0.000000    4.233416
Ne    0.000000    0.000000    0.000000
           2
 Time =    2661.0000000000000     
Ne    0.000000    0.000000    4.233416
Ne    0.000000    0.000000    0.000000
           2
 Time =    2662.0000000000000     
Ne    0.000000    0.000000    4.233416
Ne    0.000000    0.000000    0.000000
           2
 Time =    2663.0000000000000     
Ne    0.000000    0.000000    4.233416
Ne    0.000000    0.000000    0.000000
           2
 Time =    2664.0000000000000     
Ne    0.000000    0.000000    4.233416
Ne    0.000000    0.000000    0.000000
           2
 Time =    2665.0000000000000     
Ne    0.000000    0.000000    4.233416
Ne    0.000000    0.000000    0.000000
           2
 Time =    2666.0000000000000     
Ne    0.000000    0.000000    4.233416
Ne    0.000000    0.000000    0.000000
           2
 Time =    2667.0000000000000     
Ne    0.000000    0.000000    4.233416
Ne    0.000000    0.000000    0.000000
           2
 Time =    2668.0000000000000     
Ne    0.000000    0.000000    4.233416
Ne    0.000000    0.000000    0.000000
           2
 Time =    2669.0000000000000     
Ne    0.000000    0.000000    4.233416
Ne    0.000000    0.000000    0.000000
           2
 Time =    2670.0000000000000     
Ne    0.000000    0.000000    4.233416
Ne    0.000000    0.000000    0.000000
           2
 Time =    2671.0000000000000     
Ne    0.000000    0.000000    4.233416
Ne    0.000000    0.000000    0.000000
           2
 Time =    2672.0000000000000     
Ne    0.000000    0.000000    4.233416
Ne    0.000000    0.000000    0.000000
           2
 Time =    2673.0000000000000     
Ne    0.000000    0.000000    4.233416
Ne    0.000000    0.000000    0.000000
           2
 Time =    2674.0000000000000     
Ne    0.000000    0.000000    4.233416
Ne    0.000000    0.000000    0.000000
           2
 Time =    2675.0000000000000     
Ne    0.000000    0.000000    4.233416
Ne    0.000000    0.000000    0.000000
           2
 Time =    2676.0000000000000     
Ne    0.000000    0.000000    4.233416
Ne    0.000000    0.000000    0.000000
           2
 Time =    2677.0000000000000     
Ne    0.000000    0.000000    4.233416
Ne    0.000000    0.000000    0.000000
           2
 Time =    2678.0000000000000     
Ne    0.000000    0.000000    4.233416
Ne    0.000000    0.000000    0.000000
           2
 Time =    2679.0000000000000     
Ne    0.000000    0.000000    4.233416
Ne    0.000000    0.000000    0.000000
           2
 Time =    2680.0000000000000     
Ne    0.000000    0.000000    4.233416
Ne    0.000000    0.000000    0.000000
           2
 Time =    2681.0000000000000     
Ne    0.000000    0.000000    4.233416
Ne    0.000000    0.000000    0.000000
           2
 Time =    2682.0000000000000     
Ne    0.000000    0.000000    4.233416
Ne    0.000000    0.000000    0.000000
           2
 Time =    2683.0000000000000     
Ne    0.000000    0.000000    4.233416
Ne    0.000000    0.000000    0.000000
           2
 Time =    2684.0000000000000     
Ne    0.000000    0.000000    4.233416
Ne    0.000000    0.000000    0.000000
           2
 Time =    2685.0000000000000     
Ne    0.000000    0.000000    4.233416
Ne    0.000000    0.000000    0.000000
           2
 Time =    2686.0000000000000     
Ne    0.000000    0.000000    4.233416
Ne    0.000000    0.000000    0.000000
           2
 Time =    2687.0000000000000     
Ne    0.000000    0.000000    4.233416
Ne    0.000000    0.000000    0.000000
           2
 Time =    2688.0000000000000     
Ne    0.000000    0.000000    4.233416
Ne    0.000000    0.000000    0.000000
           2
 Time =    2689.0000000000000     
Ne    0.000000    0.000000    4.233416
Ne    0.000000    0.000000    0.000000
           2
 Time =    2690.0000000000000     
Ne    0.000000    0.000000    4.233416
Ne    0.000000    0.000000    0.000000
           2
 Time =    2691.0000000000000     
Ne    0.000000    0.000000    4.233416
Ne    0.000000    0.000000    0.000000
           2
 Time =    2692.0000000000000     
Ne    0.000000    0.000000    4.233416
Ne    0.000000    0.000000    0.000000
           2
 Time =    2693.0000000000000     
Ne    0.000000    0.000000    4.233416
Ne    0.000000    0.000000    0.000000
           2
 Time =    2694.0000000000000     
Ne    0.000000    0.000000    4.233416
Ne    0.000000    0.000000    0.000000
           2
 Time =    2695.0000000000000     
Ne    0.000000    0.000000    4.233416
Ne    0.000000    0.000000    0.000000
           2
 Time =    2696.0000000000000     
Ne    0.000000    0.000000    4.233416
Ne    0.000000    0.000000    0.000000
           2
 Time =    2697.0000000000000     
Ne    0.000000    0.000000    4.233416
Ne    0.000000    0.000000    0.000000
           2
 Time =    2698.0000000000000     
Ne    0.000000    0.000000    4.233416
Ne    0.000000    0.000000    0.000000
           2
 Time =    2699.0000000000000     
Ne    0.000000    0.000000    4.233416
Ne    0.000000    0.000000    0.000000
           2
 Time =    2700.0000000000000     
Ne    0.000000    0.000000    4.233416
Ne    0.000000    0.000000    0.000000
           2
 Time =    2701.0000000000000     
Ne    0.000000    0.000000    4.233416
Ne    0.000000    0.000000    0.000000
           2
 Time =    2702.0000000000000     
Ne    0.000000    0.000000    4.233416
Ne    0.000000    0.000000    0.000000
           2
 Time =    2703.0000000000000     
Ne    0.000000    0.000000    4.233416
Ne    0.000000    0.000000    0.000000
           2
 Time =    2704.0000000000000     
Ne    0.000000    0.000000    4.233416
Ne    0.000000    0.000000    0.000000
           2
 Time =    2705.0000000000000     
Ne    0.000000    0.000000    4.233416
Ne    0.000000    0.000000    0.000000
           2
 Time =    2706.0000000000000     
Ne    0.000000    0.000000    4.233416
Ne    0.000000    0.000000    0.000000
           2
 Time =    2707.0000000000000     
Ne    0.000000    0.000000    4.233416
Ne    0.000000    0.000000    0.000000
           2
 Time =    2708.0000000000000     
Ne    0.000000    0.000000    4.233416
Ne    0.000000    0.000000    0.000000
           2
 Time =    2709.0000000000000     
Ne    0.000000    0.000000    4.233416
Ne    0.000000    0.000000    0.000000
           2
 Time =    2710.0000000000000     
Ne    0.000000    0.000000    4.233416
Ne    0.000000    0.000000    0.000000
           2
 Time =    2711.0000000000000     
Ne    0.000000    0.000000    4.233416
Ne    0.000000    0.000000    0.000000
           2
 Time =    2712.0000000000000     
Ne    0.000000    0.000000    4.233416
Ne    0.000000    0.000000    0.000000
           2
 Time =    2713.0000000000000     
Ne    0.000000    0.000000    4.233416
Ne    0.000000    0.000000    0.000000
           2
 Time =    2714.0000000000000     
Ne    0.000000    0.000000    4.233416
Ne    0.000000    0.000000    0.000000
           2
 Time =    2715.0000000000000     
Ne    0.000000    0.000000    4.233416
Ne    0.000000    0.000000    0.000000
           2
 Time =    2716.0000000000000     
Ne    0.000000    0.000000    4.233416
Ne    0.000000    0.000000    0.000000
           2
 Time =    2717.0000000000000     
Ne    0.000000    0.000000    4.233416
Ne    0.000000    0.000000    0.000000
           2
 Time =    2718.0000000000000     
Ne    0.000000    0.000000    4.233416
Ne    0.000000    0.000000    0.000000
           2
 Time =    2719.0000000000000     
Ne    0.000000    0.000000    4.233416
Ne    0.000000    0.000000    0.000000
           2
 Time =    2720.0000000000000     
Ne    0.000000    0.000000    4.233416
Ne    0.000000    0.000000    0.000000
           2
 Time =    2721.0000000000000     
Ne    0.000000    0.000000    4.233416
Ne    0.000000    0.000000    0.000000
           2
 Time =    2722.0000000000000     
Ne    0.000000    0.000000    4.233416
Ne    0.000000    0.000000    0.000000
           2
 Time =    2723.0000000000000     
Ne    0.000000    0.000000    4.233416
Ne    0.000000    0.000000    0.000000
           2
 Time =    2724.0000000000000     
Ne    0.000000    0.000000    4.233416
Ne    0.000000    0.000000    0.000000
           2
 Time =    2725.0000000000000     
Ne    0.000000    0.000000    4.233416
Ne    0.000000    0.000000    0.000000
           2
 Time =    2726.0000000000000     
Ne    0.000000    0.000000    4.233416
Ne    0.000000    0.000000    0.000000
           2
 Time =    2727.0000000000000     
Ne    0.000000    0.000000    4.233416
Ne    0.000000    0.000000    0.000000
           2
 Time =    2728.0000000000000     
Ne    0.000000    0.000000    4.233416
Ne    0.000000    0.000000    0.000000
           2
 Time =    2729.0000000000000     
Ne    0.000000    0.000000    4.233416
Ne    0.000000    0.000000    0.000000
           2
 Time =    2730.0000000000000     
Ne    0.000000    0.000000    4.233416
Ne    0.000000    0.000000    0.000000
           2
 Time =    2731.0000000000000     
Ne    0.000000    0.000000    4.233416
Ne    0.000000    0.000000    0.000000
           2
 Time =    2732.0000000000000     
Ne    0.000000    0.000000    4.233416
Ne    0.000000    0.000000    0.000000
           2
 Time =    2733.0000000000000     
Ne    0.000000    0.000000    4.233416
Ne    0.000000    0.000000    0.000000
           2
 Time =    2734.0000000000000     
Ne    0.000000    0.000000    4.233416
Ne    0.000000    0.000000    0.000000
           2
 Time =    2735.0000000000000     
Ne    0.000000    0.000000    4.233416
Ne    0.000000    0.000000    0.000000
           2
 Time =    2736.0000000000000     
Ne    0.000000    0.000000    4.233416
Ne    0.000000    0.000000    0.000000
           2
 Time =    2737.0000000000000     
Ne    0.000000    0.000000    4.233416
Ne    0.000000    0.000000    0.000000
           2
 Time =    2738.0000000000000     
Ne    0.000000    0.000000    4.233416
Ne    0.000000    0.000000    0.000000
           2
 Time =    2739.0000000000000     
Ne    0.000000    0.000000    4.233416
Ne    0.000000    0.000000    0.000000
           2
 Time =    2740.0000000000000     
Ne    0.000000    0.000000    4.233416
Ne    0.000000    0.000000    0.000000
           2
 Time =    2741.0000000000000     
Ne    0.000000    0.000000    4.233416
Ne    0.000000    0.000000    0.000000
           2
 Time =    2742.0000000000000     
Ne    0.000000    0.000000    4.233416
Ne    0.000000    0.000000    0.000000
           2
 Time =    2743.0000000000000     
Ne    0.000000    0.000000    4.233416
Ne    0.000000    0.000000    0.000000
           2
 Time =    2744.0000000000000     
Ne    0.000000    0.000000    4.233416
Ne    0.000000    0.000000    0.000000
           2
 Time =    2745.0000000000000     
Ne    0.000000    0.000000    4.233416
Ne    0.000000    0.000000    0.000000
           2
 Time =    2746.0000000000000     
Ne    0.000000    0.000000    4.233416
Ne    0.000000    0.000000    0.000000
           2
 Time =    2747.0000000000000     
Ne    0.000000    0.000000    4.233416
Ne    0.000000    0.000000    0.000000
           2
 Time =    2748.0000000000000     
Ne    0.000000    0.000000    4.233416
Ne    0.000000    0.000000    0.000000
           2
 Time =    2749.0000000000000     
Ne    0.000000    0.000000    4.233416
Ne    0.000000    0.000000    0.000000
           2
 Time =    2750.0000000000000     
Ne    0.000000    0.000000    4.233416
Ne    0.000000    0.000000    0.000000
           2
 Time =    2751.0000000000000     
Ne    0.000000    0.000000    4.233416
Ne    0.000000    0.000000    0.000000
           2
 Time =    2752.0000000000000     
Ne    0.000000    0.000000    4.233416
Ne    0.000000    0.000000    0.000000
           2
 Time =    2753.0000000000000     
Ne    0.000000    0.000000    4.233416
Ne    0.000000    0.000000    0.000000
           2
 Time =    2754.0000000000000     
Ne    0.000000    0.000000    4.233416
Ne    0.000000    0.000000    0.000000
           2
 Time =    2755.0000000000000     
Ne    0.000000    0.000000    4.233416
Ne    0.000000    0.000000    0.000000
           2
 Time =    2756.0000000000000     
Ne    0.000000    0.000000    4.233416
Ne    0.000000    0.000000    0.000000
           2
 Time =    2757.0000000000000     
Ne    0.000000    0.000000    4.233416
Ne    0.000000    0.000000    0.000000
           2
 Time =    2758.0000000000000     
Ne    0.000000    0.000000    4.233416
Ne    0.000000    0.000000    0.000000
           2
 Time =    2759.0000000000000     
Ne    0.000000    0.000000    4.233416
Ne    0.000000    0.000000    0.000000
           2
 Time =    2760.0000000000000     
Ne    0.000000    0.000000    4.233416
Ne    0.000000    0.000000    0.000000
           2
 Time =    2761.0000000000000     
Ne    0.000000    0.000000    4.233416
Ne    0.000000    0.000000    0.000000
           2
 Time =    2762.0000000000000     
Ne    0.000000    0.000000    4.233416
Ne    0.000000    0.000000    0.000000
           2
 Time =    2763.0000000000000     
Ne    0.000000    0.000000    4.233416
Ne    0.000000    0.000000    0.000000
           2
 Time =    2764.0000000000000     
Ne    0.000000    0.000000    4.233416
Ne    0.000000    0.000000    0.000000
           2
 Time =    2765.0000000000000     
Ne    0.000000    0.000000    4.233416
Ne    0.000000    0.000000    0.000000
           2
 Time =    2766.0000000000000     
Ne    0.000000    0.000000    4.233416
Ne    0.000000    0.000000    0.000000
           2
 Time =    2767.0000000000000     
Ne    0.000000    0.000000    4.233416
Ne    0.000000    0.000000    0.000000
           2
 Time =    2768.0000000000000     
Ne    0.000000    0.000000    4.233416
Ne    0.000000    0.000000    0.000000
           2
 Time =    2769.0000000000000     
Ne    0.000000    0.000000    4.233416
Ne    0.000000    0.000000    0.000000
           2
 Time =    2770.0000000000000     
Ne    0.000000    0.000000    4.233416
Ne    0.000000    0.000000    0.000000
           2
 Time =    2771.0000000000000     
Ne    0.000000    0.000000    4.233416
Ne    0.000000    0.000000    0.000000
           2
 Time =    2772.0000000000000     
Ne    0.000000    0.000000    4.233416
Ne    0.000000    0.000000    0.000000
           2
 Time =    2773.0000000000000     
Ne    0.000000    0.000000    4.233416
Ne    0.000000    0.000000    0.000000
           2
 Time =    2774.0000000000000     
Ne    0.000000    0.000000    4.233416
Ne    0.000000    0.000000    0.000000
           2
 Time =    2775.0000000000000     
Ne    0.000000    0.000000    4.233416
Ne    0.000000    0.000000    0.000000
           2
 Time =    2776.0000000000000     
Ne    0.000000    0.000000    4.233416
Ne    0.000000    0.000000    0.000000
           2
 Time =    2777.0000000000000     
Ne    0.000000    0.000000    4.233416
Ne    0.000000    0.000000    0.000000
           2
 Time =    2778.0000000000000     
Ne    0.000000    0.000000    4.233416
Ne    0.000000    0.000000    0.000000
           2
 Time =    2779.0000000000000     
Ne    0.000000    0.000000    4.233416
Ne    0.000000    0.000000    0.000000
           2
 Time =    2780.0000000000000     
Ne    0.000000    0.000000    4.233416
Ne    0.000000    0.000000    0.000000
           2
 Time =    2781.0000000000000     
Ne    0.000000    0.000000    4.233416
Ne    0.000000    0.000000    0.000000
           2
 Time =    2782.0000000000000     
Ne    0.000000    0.000000    4.233416
Ne    0.000000    0.000000    0.000000
           2
 Time =    2783.0000000000000     
Ne    0.000000    0.000000    4.233416
Ne    0.000000    0.000000    0.000000
           2
 Time =    2784.0000000000000     
Ne    0.000000    0.000000    4.233416
Ne    0.000000    0.000000    0.000000
           2
 Time =    2785.0000000000000     
Ne    0.000000    0.000000    4.233416
Ne    0.000000    0.000000    0.000000
           2
 Time =    2786.0000000000000     
Ne    0.000000    0.000000    4.233416
Ne    0.000000    0.000000    0.000000
           2
 Time =    2787.0000000000000     
Ne    0.000000    0.000000    4.233416
Ne    0.000000    0.000000    0.000000
           2
 Time =    2788.0000000000000     
Ne    0.000000    0.000000    4.233416
Ne    0.000000    0.000000    0.000000
           2
 Time =    2789.0000000000000     
Ne    0.000000    0.000000    4.233416
Ne    0.000000    0.000000    0.000000
           2
 Time =    2790.0000000000000     
Ne    0.000000    0.000000    4.233416
Ne    0.000000    0.000000    0.000000
           2
 Time =    2791.0000000000000     
Ne    0.000000    0.000000    4.233416
Ne    0.000000    0.000000    0.000000
           2
 Time =    2792.0000000000000     
Ne    0.000000    0.000000    4.233416
Ne    0.000000    0.000000    0.000000
           2
 Time =    2793.0000000000000     
Ne    0.000000    0.000000    4.233416
Ne    0.000000    0.000000    0.000000
           2
 Time =    2794.0000000000000     
Ne    0.000000    0.000000    4.233416
Ne    0.000000    0.000000    0.000000
           2
 Time =    2795.0000000000000     
Ne    0.000000    0.000000    4.233416
Ne    0.000000    0.000000    0.000000
           2
 Time =    2796.0000000000000     
Ne    0.000000    0.000000    4.233416
Ne    0.000000    0.000000    0.000000
           2
 Time =    2797.0000000000000     
Ne    0.000000    0.000000    4.233416
Ne    0.000000    0.000000    0.000000
           2
 Time =    2798.0000000000000     
Ne    0.000000    0.000000    4.233416
Ne    0.000000    0.000000    0.000000
           2
 Time =    2799.0000000000000     
Ne    0.000000    0.000000    4.233416
Ne    0.000000    0.000000    0.000000
           2
 Time =    2800.0000000000000     
Ne    0.000000    0.000000    4.233416
Ne    0.000000    0.000000    0.000000
           2
 Time =    2801.0000000000000     
Ne    0.000000    0.000000    4.233416
Ne    0.000000    0.000000    0.000000
           2
 Time =    2802.0000000000000     
Ne    0.000000    0.000000    4.233416
Ne    0.000000    0.000000    0.000000
           2
 Time =    2803.0000000000000     
Ne    0.000000    0.000000    4.233416
Ne    0.000000    0.000000    0.000000
           2
 Time =    2804.0000000000000     
Ne    0.000000    0.000000    4.233416
Ne    0.000000    0.000000    0.000000
           2
 Time =    2805.0000000000000     
Ne    0.000000    0.000000    4.233416
Ne    0.000000    0.000000    0.000000
           2
 Time =    2806.0000000000000     
Ne    0.000000    0.000000    4.233416
Ne    0.000000    0.000000    0.000000
           2
 Time =    2807.0000000000000     
Ne    0.000000    0.000000    4.233416
Ne    0.000000    0.000000    0.000000
           2
 Time =    2808.0000000000000     
Ne    0.000000    0.000000    4.233416
Ne    0.000000    0.000000    0.000000
           2
 Time =    2809.0000000000000     
Ne    0.000000    0.000000    4.233416
Ne    0.000000    0.000000    0.000000
           2
 Time =    2810.0000000000000     
Ne    0.000000    0.000000    4.233416
Ne    0.000000    0.000000    0.000000
           2
 Time =    2811.0000000000000     
Ne    0.000000    0.000000    4.233416
Ne    0.000000    0.000000    0.000000
           2
 Time =    2812.0000000000000     
Ne    0.000000    0.000000    4.233416
Ne    0.000000    0.000000    0.000000
           2
 Time =    2813.0000000000000     
Ne    0.000000    0.000000    4.233416
Ne    0.000000    0.000000    0.000000
           2
 Time =    2814.0000000000000     
Ne    0.000000    0.000000    4.233416
Ne    0.000000    0.000000    0.000000
           2
 Time =    2815.0000000000000     
Ne    0.000000    0.000000    4.233416
Ne    0.000000    0.000000    0.000000
           2
 Time =    2816.0000000000000     
Ne    0.000000    0.000000    4.233416
Ne    0.000000    0.000000    0.000000
           2
 Time =    2817.0000000000000     
Ne    0.000000    0.000000    4.233416
Ne    0.000000    0.000000    0.000000
           2
 Time =    2818.0000000000000     
Ne    0.000000    0.000000    4.233416
Ne    0.000000    0.000000    0.000000
           2
 Time =    2819.0000000000000     
Ne    0.000000    0.000000    4.233416
Ne    0.000000    0.000000    0.000000
           2
 Time =    2820.0000000000000     
Ne    0.000000    0.000000    4.233416
Ne    0.000000    0.000000    0.000000
           2
 Time =    2821.0000000000000     
Ne    0.000000    0.000000    4.233416
Ne    0.000000    0.000000    0.000000
           2
 Time =    2822.0000000000000     
Ne    0.000000    0.000000    4.233416
Ne    0.000000    0.000000    0.000000
           2
 Time =    2823.0000000000000     
Ne    0.000000    0.000000    4.233416
Ne    0.000000    0.000000    0.000000
           2
 Time =    2824.0000000000000     
Ne    0.000000    0.000000    4.233416
Ne    0.000000    0.000000    0.000000
           2
 Time =    2825.0000000000000     
Ne    0.000000    0.000000    4.233416
Ne    0.000000    0.000000    0.000000
           2
 Time =    2826.0000000000000     
Ne    0.000000    0.000000    4.233416
Ne    0.000000    0.000000    0.000000
           2
 Time =    2827.0000000000000     
Ne    0.000000    0.000000    4.233416
Ne    0.000000    0.000000    0.000000
           2
 Time =    2828.0000000000000     
Ne    0.000000    0.000000    4.233416
Ne    0.000000    0.000000    0.000000
           2
 Time =    2829.0000000000000     
Ne    0.000000    0.000000    4.233416
Ne    0.000000    0.000000    0.000000
           2
 Time =    2830.0000000000000     
Ne    0.000000    0.000000    4.233416
Ne    0.000000    0.000000    0.000000
           2
 Time =    2831.0000000000000     
Ne    0.000000    0.000000    4.233416
Ne    0.000000    0.000000    0.000000
           2
 Time =    2832.0000000000000     
Ne    0.000000    0.000000    4.233416
Ne    0.000000    0.000000    0.000000
           2
 Time =    2833.0000000000000     
Ne    0.000000    0.000000    4.233416
Ne    0.000000    0.000000    0.000000
           2
 Time =    2834.0000000000000     
Ne    0.000000    0.000000    4.233416
Ne    0.000000    0.000000    0.000000
           2
 Time =    2835.0000000000000     
Ne    0.000000    0.000000    4.233416
Ne    0.000000    0.000000    0.000000
           2
 Time =    2836.0000000000000     
Ne    0.000000    0.000000    4.233416
Ne    0.000000    0.000000    0.000000
           2
 Time =    2837.0000000000000     
Ne    0.000000    0.000000    4.233416
Ne    0.000000    0.000000    0.000000
           2
 Time =    2838.0000000000000     
Ne    0.000000    0.000000    4.233416
Ne    0.000000    0.000000    0.000000
           2
 Time =    2839.0000000000000     
Ne    0.000000    0.000000    4.233416
Ne    0.000000    0.000000    0.000000
           2
 Time =    2840.0000000000000     
Ne    0.000000    0.000000    4.233416
Ne    0.000000    0.000000    0.000000
           2
 Time =    2841.0000000000000     
Ne    0.000000    0.000000    4.233416
Ne    0.000000    0.000000    0.000000
           2
 Time =    2842.0000000000000     
Ne    0.000000    0.000000    4.233416
Ne    0.000000    0.000000    0.000000
           2
 Time =    2843.0000000000000     
Ne    0.000000    0.000000    4.233416
Ne    0.000000    0.000000    0.000000
           2
 Time =    2844.0000000000000     
Ne    0.000000    0.000000    4.233416
Ne    0.000000    0.000000    0.000000
           2
 Time =    2845.0000000000000     
Ne    0.000000    0.000000    4.233416
Ne    0.000000    0.000000    0.000000
           2
 Time =    2846.0000000000000     
Ne    0.000000    0.000000    4.233416
Ne    0.000000    0.000000    0.000000
           2
 Time =    2847.0000000000000     
Ne    0.000000    0.000000    4.233416
Ne    0.000000    0.000000    0.000000
           2
 Time =    2848.0000000000000     
Ne    0.000000    0.000000    4.233416
Ne    0.000000    0.000000    0.000000
           2
 Time =    2849.0000000000000     
Ne    0.000000    0.000000    4.233416
Ne    0.000000    0.000000    0.000000
           2
 Time =    2850.0000000000000     
Ne    0.000000    0.000000    4.233416
Ne    0.000000    0.000000    0.000000
           2
 Time =    2851.0000000000000     
Ne    0.000000    0.000000    4.233416
Ne    0.000000    0.000000    0.000000
           2
 Time =    2852.0000000000000     
Ne    0.000000    0.000000    4.233416
Ne    0.000000    0.000000    0.000000
           2
 Time =    2853.0000000000000     
Ne    0.000000    0.000000    4.233416
Ne    0.000000    0.000000    0.000000
           2
 Time =    2854.0000000000000     
Ne    0.000000    0.000000    4.233416
Ne    0.000000    0.000000    0.000000
           2
 Time =    2855.0000000000000     
Ne    0.000000    0.000000    4.233416
Ne    0.000000    0.000000    0.000000
           2
 Time =    2856.0000000000000     
Ne    0.000000    0.000000    4.233416
Ne    0.000000    0.000000    0.000000
           2
 Time =    2857.0000000000000     
Ne    0.000000    0.000000    4.233416
Ne    0.000000    0.000000    0.000000
           2
 Time =    2858.0000000000000     
Ne    0.000000    0.000000    4.233416
Ne    0.000000    0.000000    0.000000
           2
 Time =    2859.0000000000000     
Ne    0.000000    0.000000    4.233416
Ne    0.000000    0.000000    0.000000
           2
 Time =    2860.0000000000000     
Ne    0.000000    0.000000    4.233416
Ne    0.000000    0.000000    0.000000
           2
 Time =    2861.0000000000000     
Ne    0.000000    0.000000    4.233416
Ne    0.000000    0.000000    0.000000
           2
 Time =    2862.0000000000000     
Ne    0.000000    0.000000    4.233416
Ne    0.000000    0.000000    0.000000
           2
 Time =    2863.0000000000000     
Ne    0.000000    0.000000    4.233416
Ne    0.000000    0.000000    0.000000
           2
 Time =    2864.0000000000000     
Ne    0.000000    0.000000    4.233416
Ne    0.000000    0.000000    0.000000
           2
 Time =    2865.0000000000000     
Ne    0.000000    0.000000    4.233416
Ne    0.000000    0.000000    0.000000
           2
 Time =    2866.0000000000000     
Ne    0.000000    0.000000    4.233416
Ne    0.000000    0.000000    0.000000
           2
 Time =    2867.0000000000000     
Ne    0.000000    0.000000    4.233416
Ne    0.000000    0.000000    0.000000
           2
 Time =    2868.0000000000000     
Ne    0.000000    0.000000    4.233416
Ne    0.000000    0.000000    0.000000
           2
 Time =    2869.0000000000000     
Ne    0.000000    0.000000    4.233416
Ne    0.000000    0.000000    0.000000
           2
 Time =    2870.0000000000000     
Ne    0.000000    0.000000    4.233416
Ne    0.000000    0.000000    0.000000
           2
 Time =    2871.0000000000000     
Ne    0.000000    0.000000    4.233416
Ne    0.000000    0.000000    0.000000
           2
 Time =    2872.0000000000000     
Ne    0.000000    0.000000    4.233416
Ne    0.000000    0.000000    0.000000
           2
 Time =    2873.0000000000000     
Ne    0.000000    0.000000    4.233416
Ne    0.000000    0.000000    0.000000
           2
 Time =    2874.0000000000000     
Ne    0.000000    0.000000    4.233416
Ne    0.000000    0.000000    0.000000
           2
 Time =    2875.0000000000000     
Ne    0.000000    0.000000    4.233416
Ne    0.000000    0.000000    0.000000
           2
 Time =    2876.0000000000000     
Ne    0.000000    0.000000    4.233416
Ne    0.000000    0.000000    0.000000
           2
 Time =    2877.0000000000000     
Ne    0.000000    0.000000    4.233416
Ne    0.000000    0.000000    0.000000
           2
 Time =    2878.0000000000000     
Ne    0.000000    0.000000    4.233416
Ne    0.000000    0.000000    0.000000
           2
 Time =    2879.0000000000000     
Ne    0.000000    0.000000    4.233416
Ne    0.000000    0.000000    0.000000
           2
 Time =    2880.0000000000000     
Ne    0.000000    0.000000    4.233416
Ne    0.000000    0.000000    0.000000
           2
 Time =    2881.0000000000000     
Ne    0.000000    0.000000    4.233416
Ne    0.000000    0.000000    0.000000
           2
 Time =    2882.0000000000000     
Ne    0.000000    0.000000    4.233416
Ne    0.000000    0.000000    0.000000
           2
 Time =    2883.0000000000000     
Ne    0.000000    0.000000    4.233416
Ne    0.000000    0.000000    0.000000
           2
 Time =    2884.0000000000000     
Ne    0.000000    0.000000    4.233416
Ne    0.000000    0.000000    0.000000
           2
 Time =    2885.0000000000000     
Ne    0.000000    0.000000    4.233416
Ne    0.000000    0.000000    0.000000
           2
 Time =    2886.0000000000000     
Ne    0.000000    0.000000    4.233416
Ne    0.000000    0.000000    0.000000
           2
 Time =    2887.0000000000000     
Ne    0.000000    0.000000    4.233416
Ne    0.000000    0.000000    0.000000
           2
 Time =    2888.0000000000000     
Ne    0.000000    0.000000    4.233416
Ne    0.000000    0.000000    0.000000
           2
 Time =    2889.0000000000000     
Ne    0.000000    0.000000    4.233416
Ne    0.000000    0.000000    0.000000
           2
 Time =    2890.0000000000000     
Ne    0.000000    0.000000    4.233416
Ne    0.000000    0.000000    0.000000
           2
 Time =    2891.0000000000000     
Ne    0.000000    0.000000    4.233416
Ne    0.000000    0.000000    0.000000
           2
 Time =    2892.0000000000000     
Ne    0.000000    0.000000    4.233416
Ne    0.000000    0.000000    0.000000
           2
 Time =    2893.0000000000000     
Ne    0.000000    0.000000    4.233416
Ne    0.000000    0.000000    0.000000
           2
 Time =    2894.0000000000000     
Ne    0.000000    0.000000    4.233416
Ne    0.000000    0.000000    0.000000
           2
 Time =    2895.0000000000000     
Ne    0.000000    0.000000    4.233416
Ne    0.000000    0.000000    0.000000
           2
 Time =    2896.0000000000000     
Ne    0.000000    0.000000    4.233416
Ne    0.000000    0.000000    0.000000
           2
 Time =    2897.0000000000000     
Ne    0.000000    0.000000    4.233416
Ne    0.000000    0.000000    0.000000
           2
 Time =    2898.0000000000000     
Ne    0.000000    0.000000    4.233416
Ne    0.000000    0.000000    0.000000
           2
 Time =    2899.0000000000000     
Ne    0.000000    0.000000    4.233416
Ne    0.000000    0.000000    0.000000
           2
 Time =    2900.0000000000000     
Ne    0.000000    0.000000    4.233416
Ne    0.000000    0.000000    0.000000
           2
 Time =    2901.0000000000000     
Ne    0.000000    0.000000    4.233416
Ne    0.000000    0.000000    0.000000
           2
 Time =    2902.0000000000000     
Ne    0.000000    0.000000    4.233416
Ne    0.000000    0.000000    0.000000
           2
 Time =    2903.0000000000000     
Ne    0.000000    0.000000    4.233416
Ne    0.000000    0.000000    0.000000
           2
 Time =    2904.0000000000000     
Ne    0.000000    0.000000    4.233416
Ne    0.000000    0.000000    0.000000
           2
 Time =    2905.0000000000000     
Ne    0.000000    0.000000    4.233416
Ne    0.000000    0.000000    0.000000
           2
 Time =    2906.0000000000000     
Ne    0.000000    0.000000    4.233416
Ne    0.000000    0.000000    0.000000
           2
 Time =    2907.0000000000000     
Ne    0.000000    0.000000    4.233416
Ne    0.000000    0.000000    0.000000
           2
 Time =    2908.0000000000000     
Ne    0.000000    0.000000    4.233416
Ne    0.000000    0.000000    0.000000
           2
 Time =    2909.0000000000000     
Ne    0.000000    0.000000    4.233416
Ne    0.000000    0.000000    0.000000
           2
 Time =    2910.0000000000000     
Ne    0.000000    0.000000    4.233416
Ne    0.000000    0.000000    0.000000
           2
 Time =    2911.0000000000000     
Ne    0.000000    0.000000    4.233416
Ne    0.000000    0.000000    0.000000
           2
 Time =    2912.0000000000000     
Ne    0.000000    0.000000    4.233416
Ne    0.000000    0.000000    0.000000
           2
 Time =    2913.0000000000000     
Ne    0.000000    0.000000    4.233416
Ne    0.000000    0.000000    0.000000
           2
 Time =    2914.0000000000000     
Ne    0.000000    0.000000    4.233416
Ne    0.000000    0.000000    0.000000
           2
 Time =    2915.0000000000000     
Ne    0.000000    0.000000    4.233416
Ne    0.000000    0.000000    0.000000
           2
 Time =    2916.0000000000000     
Ne    0.000000    0.000000    4.233416
Ne    0.000000    0.000000    0.000000
           2
 Time =    2917.0000000000000     
Ne    0.000000    0.000000    4.233416
Ne    0.000000    0.000000    0.000000
           2
 Time =    2918.0000000000000     
Ne    0.000000    0.000000    4.233416
Ne    0.000000    0.000000    0.000000
           2
 Time =    2919.0000000000000     
Ne    0.000000    0.000000    4.233416
Ne    0.000000    0.000000    0.000000
           2
 Time =    2920.0000000000000     
Ne    0.000000    0.000000    4.233416
Ne    0.000000    0.000000    0.000000
           2
 Time =    2921.0000000000000     
Ne    0.000000    0.000000    4.233416
Ne    0.000000    0.000000    0.000000
           2
 Time =    2922.0000000000000     
Ne    0.000000    0.000000    4.233416
Ne    0.000000    0.000000    0.000000
           2
 Time =    2923.0000000000000     
Ne    0.000000    0.000000    4.233416
Ne    0.000000    0.000000    0.000000
           2
 Time =    2924.0000000000000     
Ne    0.000000    0.000000    4.233416
Ne    0.000000    0.000000    0.000000
           2
 Time =    2925.0000000000000     
Ne    0.000000    0.000000    4.233416
Ne    0.000000    0.000000    0.000000
           2
 Time =    2926.0000000000000     
Ne    0.000000    0.000000    4.233416
Ne    0.000000    0.000000    0.000000
           2
 Time =    2927.0000000000000     
Ne    0.000000    0.000000    4.233416
Ne    0.000000    0.000000    0.000000
           2
 Time =    2928.0000000000000     
Ne    0.000000    0.000000    4.233416
Ne    0.000000    0.000000    0.000000
           2
 Time =    2929.0000000000000     
Ne    0.000000    0.000000    4.233416
Ne    0.000000    0.000000    0.000000
           2
 Time =    2930.0000000000000     
Ne    0.000000    0.000000    4.233416
Ne    0.000000    0.000000    0.000000
           2
 Time =    2931.0000000000000     
Ne    0.000000    0.000000    4.233416
Ne    0.000000    0.000000    0.000000
           2
 Time =    2932.0000000000000     
Ne    0.000000    0.000000    4.233416
Ne    0.000000    0.000000    0.000000
           2
 Time =    2933.0000000000000     
Ne    0.000000    0.000000    4.233416
Ne    0.000000    0.000000    0.000000
           2
 Time =    2934.0000000000000     
Ne    0.000000    0.000000    4.233416
Ne    0.000000    0.000000    0.000000
           2
 Time =    2935.0000000000000     
Ne    0.000000    0.000000    4.233416
Ne    0.000000    0.000000    0.000000
           2
 Time =    2936.0000000000000     
Ne    0.000000    0.000000    4.233416
Ne    0.000000    0.000000    0.000000
           2
 Time =    2937.0000000000000     
Ne    0.000000    0.000000    4.233416
Ne    0.000000    0.000000    0.000000
           2
 Time =    2938.0000000000000     
Ne    0.000000    0.000000    4.233416
Ne    0.000000    0.000000    0.000000
           2
 Time =    2939.0000000000000     
Ne    0.000000    0.000000    4.233416
Ne    0.000000    0.000000    0.000000
           2
 Time =    2940.0000000000000     
Ne    0.000000    0.000000    4.233416
Ne    0.000000    0.000000    0.000000
           2
 Time =    2941.0000000000000     
Ne    0.000000    0.000000    4.233416
Ne    0.000000    0.000000    0.000000
           2
 Time =    2942.0000000000000     
Ne    0.000000    0.000000    4.233416
Ne    0.000000    0.000000    0.000000
           2
 Time =    2943.0000000000000     
Ne    0.000000    0.000000    4.233416
Ne    0.000000    0.000000    0.000000
           2
 Time =    2944.0000000000000     
Ne    0.000000    0.000000    4.233416
Ne    0.000000    0.000000    0.000000
           2
 Time =    2945.0000000000000     
Ne    0.000000    0.000000    4.233416
Ne    0.000000    0.000000    0.000000
           2
 Time =    2946.0000000000000     
Ne    0.000000    0.000000    4.233416
Ne    0.000000    0.000000    0.000000
           2
 Time =    2947.0000000000000     
Ne    0.000000    0.000000    4.233416
Ne    0.000000    0.000000    0.000000
           2
 Time =    2948.0000000000000     
Ne    0.000000    0.000000    4.233416
Ne    0.000000    0.000000    0.000000
           2
 Time =    2949.0000000000000     
Ne    0.000000    0.000000    4.233416
Ne    0.000000    0.000000    0.000000
           2
 Time =    2950.0000000000000     
Ne    0.000000    0.000000    4.233416
Ne    0.000000    0.000000    0.000000
           2
 Time =    2951.0000000000000     
Ne    0.000000    0.000000    4.233416
Ne    0.000000    0.000000    0.000000
           2
 Time =    2952.0000000000000     
Ne    0.000000    0.000000    4.233416
Ne    0.000000    0.000000    0.000000
           2
 Time =    2953.0000000000000     
Ne    0.000000    0.000000    4.233416
Ne    0.000000    0.000000    0.000000
           2
 Time =    2954.0000000000000     
Ne    0.000000    0.000000    4.233416
Ne    0.000000    0.000000    0.000000
           2
 Time =    2955.0000000000000     
Ne    0.000000    0.000000    4.233416
Ne    0.000000    0.000000    0.000000
           2
 Time =    2956.0000000000000     
Ne    0.000000    0.000000    4.233416
Ne    0.000000    0.000000    0.000000
           2
 Time =    2957.0000000000000     
Ne    0.000000    0.000000    4.233416
Ne    0.000000    0.000000    0.000000
           2
 Time =    2958.0000000000000     
Ne    0.000000    0.000000    4.233416
Ne    0.000000    0.000000    0.000000
           2
 Time =    2959.0000000000000     
Ne    0.000000    0.000000    4.233416
Ne    0.000000    0.000000    0.000000
           2
 Time =    2960.0000000000000     
Ne    0.000000    0.000000    4.233416
Ne    0.000000    0.000000    0.000000
           2
 Time =    2961.0000000000000     
Ne    0.000000    0.000000    4.233416
Ne    0.000000    0.000000    0.000000
           2
 Time =    2962.0000000000000     
Ne    0.000000    0.000000    4.233416
Ne    0.000000    0.000000    0.000000
           2
 Time =    2963.0000000000000     
Ne    0.000000    0.000000    4.233416
Ne    0.000000    0.000000    0.000000
           2
 Time =    2964.0000000000000     
Ne    0.000000    0.000000    4.233416
Ne    0.000000    0.000000    0.000000
           2
 Time =    2965.0000000000000     
Ne    0.000000    0.000000    4.233416
Ne    0.000000    0.000000    0.000000
           2
 Time =    2966.0000000000000     
Ne    0.000000    0.000000    4.233416
Ne    0.000000    0.000000    0.000000
           2
 Time =    2967.0000000000000     
Ne    0.000000    0.000000    4.233416
Ne    0.000000    0.000000    0.000000
           2
 Time =    2968.0000000000000     
Ne    0.000000    0.000000    4.233416
Ne    0.000000    0.000000    0.000000
           2
 Time =    2969.0000000000000     
Ne    0.000000    0.000000    4.233416
Ne    0.000000    0.000000    0.000000
           2
 Time =    2970.0000000000000     
Ne    0.000000    0.000000    4.233416
Ne    0.000000    0.000000    0.000000
           2
 Time =    2971.0000000000000     
Ne    0.000000    0.000000    4.233416
Ne    0.000000    0.000000    0.000000
           2
 Time =    2972.0000000000000     
Ne    0.000000    0.000000    4.233416
Ne    0.000000    0.000000    0.000000
           2
 Time =    2973.0000000000000     
Ne    0.000000    0.000000    4.233416
Ne    0.000000    0.000000    0.000000
           2
 Time =    2974.0000000000000     
Ne    0.000000    0.000000    4.233416
Ne    0.000000    0.000000    0.000000
           2
 Time =    2975.0000000000000     
Ne    0.000000    0.000000    4.233416
Ne    0.000000    0.000000    0.000000
           2
 Time =    2976.0000000000000     
Ne    0.000000    0.000000    4.233416
Ne    0.000000    0.000000    0.000000
           2
 Time =    2977.0000000000000     
Ne    0.000000    0.000000    4.233416
Ne    0.000000    0.000000    0.000000
           2
 Time =    2978.0000000000000     
Ne    0.000000    0.000000    4.233416
Ne    0.000000    0.000000    0.000000
           2
 Time =    2979.0000000000000     
Ne    0.000000    0.000000    4.233416
Ne    0.000000    0.000000    0.000000
           2
 Time =    2980.0000000000000     
Ne    0.000000    0.000000    4.233416
Ne    0.000000    0.000000    0.000000
           2
 Time =    2981.0000000000000     
Ne    0.000000    0.000000    4.233416
Ne    0.000000    0.000000    0.000000
           2
 Time =    2982.0000000000000     
Ne    0.000000    0.000000    4.233416
Ne    0.000000    0.000000    0.000000
           2
 Time =    2983.0000000000000     
Ne    0.000000    0.000000    4.233416
Ne    0.000000    0.000000    0.000000
           2
 Time =    2984.0000000000000     
Ne    0.000000    0.000000    4.233416
Ne    0.000000    0.000000    0.000000
           2
 Time =    2985.0000000000000     
Ne    0.000000    0.000000    4.233416
Ne    0.000000    0.000000    0.000000
           2
 Time =    2986.0000000000000     
Ne    0.000000    0.000000    4.233416
Ne    0.000000    0.000000    0.000000
           2
 Time =    2987.0000000000000     
Ne    0.000000    0.000000    4.233416
Ne    0.000000    0.000000    0.000000
           2
 Time =    2988.0000000000000     
Ne    0.000000    0.000000    4.233416
Ne    0.000000    0.000000    0.000000
           2
 Time =    2989.0000000000000     
Ne    0.000000    0.000000    4.233416
Ne    0.000000    0.000000    0.000000
           2
 Time =    2990.0000000000000     
Ne    0.000000    0.000000    4.233416
Ne    0.000000    0.000000    0.000000
           2
 Time =    2991.0000000000000     
Ne    0.000000    0.000000    4.233416
Ne    0.000000    0.000000    0.000000
           2
 Time =    2992.0000000000000     
Ne    0.000000    0.000000    4.233416
Ne    0.000000    0.000000    0.000000
           2
 Time =    2993.0000000000000     
Ne    0.000000    0.000000    4.233416
Ne    0.000000    0.000000    0.000000
           2
 Time =    2994.0000000000000     
Ne    0.000000    0.000000    4.233416
Ne    0.000000    0.000000    0.000000
           2
 Time =    2995.0000000000000     
Ne    0.000000    0.000000    4.233416
Ne    0.000000    0.000000    0.000000
           2
 Time =    2996.0000000000000     
Ne    0.000000    0.000000    4.233416
Ne    0.000000    0.000000    0.000000
           2
 Time =    2997.0000000000000     
Ne    0.000000    0.000000    4.233416
Ne    0.000000    0.000000    0.000000
           2
 Time =    2998.0000000000000     
Ne    0.000000    0.000000    4.233416
Ne    0.000000    0.000000    0.000000
           2
 Time =    2999.0000000000000     
Ne    0.000000    0.000000    4.233416
Ne    0.000000    0.000000    0.000000
           2
 Time =    3000.0000000000000     
Ne    0.000000    0.000000    4.233416
Ne    0.000000    0.000000    0.000000
           2
 Time =    3001.0000000000000     
Ne    0.000000    0.000000    4.233416
Ne    0.000000    0.000000    0.000000
           2
 Time =    3002.0000000000000     
Ne    0.000000    0.000000    4.233416
Ne    0.000000    0.000000    0.000000
           2
 Time =    3003.0000000000000     
Ne    0.000000    0.000000    4.233416
Ne    0.000000    0.000000    0.000000
           2
 Time =    3004.0000000000000     
Ne    0.000000    0.000000    4.233416
Ne    0.000000    0.000000    0.000000
           2
 Time =    3005.0000000000000     
Ne    0.000000    0.000000    4.233416
Ne    0.000000    0.000000    0.000000
           2
 Time =    3006.0000000000000     
Ne    0.000000    0.000000    4.233416
Ne    0.000000    0.000000    0.000000
           2
 Time =    3007.0000000000000     
Ne    0.000000    0.000000    4.233416
Ne    0.000000    0.000000    0.000000
           2
 Time =    3008.0000000000000     
Ne    0.000000    0.000000    4.233416
Ne    0.000000    0.000000    0.000000
           2
 Time =    3009.0000000000000     
Ne    0.000000    0.000000    4.233416
Ne    0.000000    0.000000    0.000000
           2
 Time =    3010.0000000000000     
Ne    0.000000    0.000000    4.233416
Ne    0.000000    0.000000    0.000000
           2
 Time =    3011.0000000000000     
Ne    0.000000    0.000000    4.233416
Ne    0.000000    0.000000    0.000000
           2
 Time =    3012.0000000000000     
Ne    0.000000    0.000000    4.233416
Ne    0.000000    0.000000    0.000000
           2
 Time =    3013.0000000000000     
Ne    0.000000    0.000000    4.233416
Ne    0.000000    0.000000    0.000000
           2
 Time =    3014.0000000000000     
Ne    0.000000    0.000000    4.233416
Ne    0.000000    0.000000    0.000000
           2
 Time =    3015.0000000000000     
Ne    0.000000    0.000000    4.233416
Ne    0.000000    0.000000    0.000000
           2
 Time =    3016.0000000000000     
Ne    0.000000    0.000000    4.233416
Ne    0.000000    0.000000    0.000000
           2
 Time =    3017.0000000000000     
Ne    0.000000    0.000000    4.233416
Ne    0.000000    0.000000    0.000000
           2
 Time =    3018.0000000000000     
Ne    0.000000    0.000000    4.233416
Ne    0.000000    0.000000    0.000000
           2
 Time =    3019.0000000000000     
Ne    0.000000    0.000000    4.233416
Ne    0.000000    0.000000    0.000000
           2
 Time =    3020.0000000000000     
Ne    0.000000    0.000000    4.233416
Ne    0.000000    0.000000    0.000000
           2
 Time =    3021.0000000000000     
Ne    0.000000    0.000000    4.233416
Ne    0.000000    0.000000    0.000000
           2
 Time =    3022.0000000000000     
Ne    0.000000    0.000000    4.233416
Ne    0.000000    0.000000    0.000000
           2
 Time =    3023.0000000000000     
Ne    0.000000    0.000000    4.233416
Ne    0.000000    0.000000    0.000000
           2
 Time =    3024.0000000000000     
Ne    0.000000    0.000000    4.233416
Ne    0.000000    0.000000    0.000000
           2
 Time =    3025.0000000000000     
Ne    0.000000    0.000000    4.233416
Ne    0.000000    0.000000    0.000000
           2
 Time =    3026.0000000000000     
Ne    0.000000    0.000000    4.233416
Ne    0.000000    0.000000    0.000000
           2
 Time =    3027.0000000000000     
Ne    0.000000    0.000000    4.233416
Ne    0.000000    0.000000    0.000000
           2
 Time =    3028.0000000000000     
Ne    0.000000    0.000000    4.233416
Ne    0.000000    0.000000    0.000000
           2
 Time =    3029.0000000000000     
Ne    0.000000    0.000000    4.233416
Ne    0.000000    0.000000    0.000000
           2
 Time =    3030.0000000000000     
Ne    0.000000    0.000000    4.233416
Ne    0.000000    0.000000    0.000000
           2
 Time =    3031.0000000000000     
Ne    0.000000    0.000000    4.233416
Ne    0.000000    0.000000    0.000000
           2
 Time =    3032.0000000000000     
Ne    0.000000    0.000000    4.233416
Ne    0.000000    0.000000    0.000000
           2
 Time =    3033.0000000000000     
Ne    0.000000    0.000000    4.233416
Ne    0.000000    0.000000    0.000000
           2
 Time =    3034.0000000000000     
Ne    0.000000    0.000000    4.233416
Ne    0.000000    0.000000    0.000000
           2
 Time =    3035.0000000000000     
Ne    0.000000    0.000000    4.233416
Ne    0.000000    0.000000    0.000000
           2
 Time =    3036.0000000000000     
Ne    0.000000    0.000000    4.233416
Ne    0.000000    0.000000    0.000000
           2
 Time =    3037.0000000000000     
Ne    0.000000    0.000000    4.233416
Ne    0.000000    0.000000    0.000000
           2
 Time =    3038.0000000000000     
Ne    0.000000    0.000000    4.233416
Ne    0.000000    0.000000    0.000000
           2
 Time =    3039.0000000000000     
Ne    0.000000    0.000000    4.233416
Ne    0.000000    0.000000    0.000000
           2
 Time =    3040.0000000000000     
Ne    0.000000    0.000000    4.233416
Ne    0.000000    0.000000    0.000000
           2
 Time =    3041.0000000000000     
Ne    0.000000    0.000000    4.233416
Ne    0.000000    0.000000    0.000000
           2
 Time =    3042.0000000000000     
Ne    0.000000    0.000000    4.233416
Ne    0.000000    0.000000    0.000000
           2
 Time =    3043.0000000000000     
Ne    0.000000    0.000000    4.233416
Ne    0.000000    0.000000    0.000000
           2
 Time =    3044.0000000000000     
Ne    0.000000    0.000000    4.233416
Ne    0.000000    0.000000    0.000000
           2
 Time =    3045.0000000000000     
Ne    0.000000    0.000000    4.233416
Ne    0.000000    0.000000    0.000000
           2
 Time =    3046.0000000000000     
Ne    0.000000    0.000000    4.233416
Ne    0.000000    0.000000    0.000000
           2
 Time =    3047.0000000000000     
Ne    0.000000    0.000000    4.233416
Ne    0.000000    0.000000    0.000000
           2
 Time =    3048.0000000000000     
Ne    0.000000    0.000000    4.233416
Ne    0.000000    0.000000    0.000000
           2
 Time =    3049.0000000000000     
Ne    0.000000    0.000000    4.233416
Ne    0.000000    0.000000    0.000000
           2
 Time =    3050.0000000000000     
Ne    0.000000    0.000000    4.233416
Ne    0.000000    0.000000    0.000000
           2
 Time =    3051.0000000000000     
Ne    0.000000    0.000000    4.233416
Ne    0.000000    0.000000    0.000000
           2
 Time =    3052.0000000000000     
Ne    0.000000    0.000000    4.233416
Ne    0.000000    0.000000    0.000000
           2
 Time =    3053.0000000000000     
Ne    0.000000    0.000000    4.233416
Ne    0.000000    0.000000    0.000000
           2
 Time =    3054.0000000000000     
Ne    0.000000    0.000000    4.233416
Ne    0.000000    0.000000    0.000000
           2
 Time =    3055.0000000000000     
Ne    0.000000    0.000000    4.233416
Ne    0.000000    0.000000    0.000000
           2
 Time =    3056.0000000000000     
Ne    0.000000    0.000000    4.233416
Ne    0.000000    0.000000    0.000000
           2
 Time =    3057.0000000000000     
Ne    0.000000    0.000000    4.233416
Ne    0.000000    0.000000    0.000000
           2
 Time =    3058.0000000000000     
Ne    0.000000    0.000000    4.233416
Ne    0.000000    0.000000    0.000000
           2
 Time =    3059.0000000000000     
Ne    0.000000    0.000000    4.233416
Ne    0.000000    0.000000    0.000000
           2
 Time =    3060.0000000000000     
Ne    0.000000    0.000000    4.233416
Ne    0.000000    0.000000    0.000000
           2
 Time =    3061.0000000000000     
Ne    0.000000    0.000000    4.233416
Ne    0.000000    0.000000    0.000000
           2
 Time =    3062.0000000000000     
Ne    0.000000    0.000000    4.233416
Ne    0.000000    0.000000    0.000000
           2
 Time =    3063.0000000000000     
Ne    0.000000    0.000000    4.233416
Ne    0.000000    0.000000    0.000000
           2
 Time =    3064.0000000000000     
Ne    0.000000    0.000000    4.233416
Ne    0.000000    0.000000    0.000000
           2
 Time =    3065.0000000000000     
Ne    0.000000    0.000000    4.233416
Ne    0.000000    0.000000    0.000000
           2
 Time =    3066.0000000000000     
Ne    0.000000    0.000000    4.233416
Ne    0.000000    0.000000    0.000000
           2
 Time =    3067.0000000000000     
Ne    0.000000    0.000000    4.233416
Ne    0.000000    0.000000    0.000000
           2
 Time =    3068.0000000000000     
Ne    0.000000    0.000000    4.233416
Ne    0.000000    0.000000    0.000000
           2
 Time =    3069.0000000000000     
Ne    0.000000    0.000000    4.233416
Ne    0.000000    0.000000    0.000000
           2
 Time =    3070.0000000000000     
Ne    0.000000    0.000000    4.233416
Ne    0.000000    0.000000    0.000000
           2
 Time =    3071.0000000000000     
Ne    0.000000    0.000000    4.233416
Ne    0.000000    0.000000    0.000000
           2
 Time =    3072.0000000000000     
Ne    0.000000    0.000000    4.233416
Ne    0.000000    0.000000    0.000000
           2
 Time =    3073.0000000000000     
Ne    0.000000    0.000000    4.233416
Ne    0.000000    0.000000    0.000000
           2
 Time =    3074.0000000000000     
Ne    0.000000    0.000000    4.233416
Ne    0.000000    0.000000    0.000000
           2
 Time =    3075.0000000000000     
Ne    0.000000    0.000000    4.233416
Ne    0.000000    0.000000    0.000000
           2
 Time =    3076.0000000000000     
Ne    0.000000    0.000000    4.233416
Ne    0.000000    0.000000    0.000000
           2
 Time =    3077.0000000000000     
Ne    0.000000    0.000000    4.233416
Ne    0.000000    0.000000    0.000000
           2
 Time =    3078.0000000000000     
Ne    0.000000    0.000000    4.233416
Ne    0.000000    0.000000    0.000000
           2
 Time =    3079.0000000000000     
Ne    0.000000    0.000000    4.233416
Ne    0.000000    0.000000    0.000000
           2
 Time =    3080.0000000000000     
Ne    0.000000    0.000000    4.233416
Ne    0.000000    0.000000    0.000000
           2
 Time =    3081.0000000000000     
Ne    0.000000    0.000000    4.233416
Ne    0.000000    0.000000    0.000000
           2
 Time =    3082.0000000000000     
Ne    0.000000    0.000000    4.233416
Ne    0.000000    0.000000    0.000000
           2
 Time =    3083.0000000000000     
Ne    0.000000    0.000000    4.233416
Ne    0.000000    0.000000    0.000000
           2
 Time =    3084.0000000000000     
Ne    0.000000    0.000000    4.233416
Ne    0.000000    0.000000    0.000000
           2
 Time =    3085.0000000000000     
Ne    0.000000    0.000000    4.233416
Ne    0.000000    0.000000    0.000000
           2
 Time =    3086.0000000000000     
Ne    0.000000    0.000000    4.233416
Ne    0.000000    0.000000    0.000000
           2
 Time =    3087.0000000000000     
Ne    0.000000    0.000000    4.233416
Ne    0.000000    0.000000    0.000000
           2
 Time =    3088.0000000000000     
Ne    0.000000    0.000000    4.233416
Ne    0.000000    0.000000    0.000000
           2
 Time =    3089.0000000000000     
Ne    0.000000    0.000000    4.233416
Ne    0.000000    0.000000    0.000000
           2
 Time =    3090.0000000000000     
Ne    0.000000    0.000000    4.233416
Ne    0.000000    0.000000    0.000000
           2
 Time =    3091.0000000000000     
Ne    0.000000    0.000000    4.233416
Ne    0.000000    0.000000    0.000000
           2
 Time =    3092.0000000000000     
Ne    0.000000    0.000000    4.233416
Ne    0.000000    0.000000    0.000000
           2
 Time =    3093.0000000000000     
Ne    0.000000    0.000000    4.233416
Ne    0.000000    0.000000    0.000000
           2
 Time =    3094.0000000000000     
Ne    0.000000    0.000000    4.233416
Ne    0.000000    0.000000    0.000000
           2
 Time =    3095.0000000000000     
Ne    0.000000    0.000000    4.233416
Ne    0.000000    0.000000    0.000000
           2
 Time =    3096.0000000000000     
Ne    0.000000    0.000000    4.233416
Ne    0.000000    0.000000    0.000000
           2
 Time =    3097.0000000000000     
Ne    0.000000    0.000000    4.233416
Ne    0.000000    0.000000    0.000000
           2
 Time =    3098.0000000000000     
Ne    0.000000    0.000000    4.233416
Ne    0.000000    0.000000    0.000000
           2
 Time =    3099.0000000000000     
Ne    0.000000    0.000000    4.233416
Ne    0.000000    0.000000    0.000000
           2
 Time =    3100.0000000000000     
Ne    0.000000    0.000000    4.233416
Ne    0.000000    0.000000    0.000000
           2
 Time =    3101.0000000000000     
Ne    0.000000    0.000000    4.233416
Ne    0.000000    0.000000    0.000000
           2
 Time =    3102.0000000000000     
Ne    0.000000    0.000000    4.233416
Ne    0.000000    0.000000    0.000000
           2
 Time =    3103.0000000000000     
Ne    0.000000    0.000000    4.233416
Ne    0.000000    0.000000    0.000000
           2
 Time =    3104.0000000000000     
Ne    0.000000    0.000000    4.233416
Ne    0.000000    0.000000    0.000000
           2
 Time =    3105.0000000000000     
Ne    0.000000    0.000000    4.233416
Ne    0.000000    0.000000    0.000000
           2
 Time =    3106.0000000000000     
Ne    0.000000    0.000000    4.233416
Ne    0.000000    0.000000    0.000000
           2
 Time =    3107.0000000000000     
Ne    0.000000    0.000000    4.233416
Ne    0.000000    0.000000    0.000000
           2
 Time =    3108.0000000000000     
Ne    0.000000    0.000000    4.233416
Ne    0.000000    0.000000    0.000000
           2
 Time =    3109.0000000000000     
Ne    0.000000    0.000000    4.233416
Ne    0.000000    0.000000    0.000000
           2
 Time =    3110.0000000000000     
Ne    0.000000    0.000000    4.233416
Ne    0.000000    0.000000    0.000000
           2
 Time =    3111.0000000000000     
Ne    0.000000    0.000000    4.233416
Ne    0.000000    0.000000    0.000000
           2
 Time =    3112.0000000000000     
Ne    0.000000    0.000000    4.233416
Ne    0.000000    0.000000    0.000000
           2
 Time =    3113.0000000000000     
Ne    0.000000    0.000000    4.233416
Ne    0.000000    0.000000    0.000000
           2
 Time =    3114.0000000000000     
Ne    0.000000    0.000000    4.233416
Ne    0.000000    0.000000    0.000000
           2
 Time =    3115.0000000000000     
Ne    0.000000    0.000000    4.233416
Ne    0.000000    0.000000    0.000000
           2
 Time =    3116.0000000000000     
Ne    0.000000    0.000000    4.233416
Ne    0.000000    0.000000    0.000000
           2
 Time =    3117.0000000000000     
Ne    0.000000    0.000000    4.233416
Ne    0.000000    0.000000    0.000000
           2
 Time =    3118.0000000000000     
Ne    0.000000    0.000000    4.233416
Ne    0.000000    0.000000    0.000000
           2
 Time =    3119.0000000000000     
Ne    0.000000    0.000000    4.233416
Ne    0.000000    0.000000    0.000000
           2
 Time =    3120.0000000000000     
Ne    0.000000    0.000000    4.233416
Ne    0.000000    0.000000    0.000000
           2
 Time =    3121.0000000000000     
Ne    0.000000    0.000000    4.233416
Ne    0.000000    0.000000    0.000000
           2
 Time =    3122.0000000000000     
Ne    0.000000    0.000000    4.233416
Ne    0.000000    0.000000    0.000000
           2
 Time =    3123.0000000000000     
Ne    0.000000    0.000000    4.233416
Ne    0.000000    0.000000    0.000000
           2
 Time =    3124.0000000000000     
Ne    0.000000    0.000000    4.233416
Ne    0.000000    0.000000    0.000000
           2
 Time =    3125.0000000000000     
Ne    0.000000    0.000000    4.233416
Ne    0.000000    0.000000    0.000000
           2
 Time =    3126.0000000000000     
Ne    0.000000    0.000000    4.233416
Ne    0.000000    0.000000    0.000000
           2
 Time =    3127.0000000000000     
Ne    0.000000    0.000000    4.233416
Ne    0.000000    0.000000    0.000000
           2
 Time =    3128.0000000000000     
Ne    0.000000    0.000000    4.233416
Ne    0.000000    0.000000    0.000000
           2
 Time =    3129.0000000000000     
Ne    0.000000    0.000000    4.233416
Ne    0.000000    0.000000    0.000000
           2
 Time =    3130.0000000000000     
Ne    0.000000    0.000000    4.233416
Ne    0.000000    0.000000    0.000000
           2
 Time =    3131.0000000000000     
Ne    0.000000    0.000000    4.233416
Ne    0.000000    0.000000    0.000000
           2
 Time =    3132.0000000000000     
Ne    0.000000    0.000000    4.233416
Ne    0.000000    0.000000    0.000000
           2
 Time =    3133.0000000000000     
Ne    0.000000    0.000000    4.233416
Ne    0.000000    0.000000    0.000000
           2
 Time =    3134.0000000000000     
Ne    0.000000    0.000000    4.233416
Ne    0.000000    0.000000    0.000000
           2
 Time =    3135.0000000000000     
Ne    0.000000    0.000000    4.233416
Ne    0.000000    0.000000    0.000000
           2
 Time =    3136.0000000000000     
Ne    0.000000    0.000000    4.233416
Ne    0.000000    0.000000    0.000000
           2
 Time =    3137.0000000000000     
Ne    0.000000    0.000000    4.233416
Ne    0.000000    0.000000    0.000000
           2
 Time =    3138.0000000000000     
Ne    0.000000    0.000000    4.233416
Ne    0.000000    0.000000    0.000000
           2
 Time =    3139.0000000000000     
Ne    0.000000    0.000000    4.233416
Ne    0.000000    0.000000    0.000000
           2
 Time =    3140.0000000000000     
Ne    0.000000    0.000000    4.233416
Ne    0.000000    0.000000    0.000000
           2
 Time =    3141.0000000000000     
Ne    0.000000    0.000000    4.233416
Ne    0.000000    0.000000    0.000000
           2
 Time =    3142.0000000000000     
Ne    0.000000    0.000000    4.233416
Ne    0.000000    0.000000    0.000000
           2
 Time =    3143.0000000000000     
Ne    0.000000    0.000000    4.233416
Ne    0.000000    0.000000    0.000000
           2
 Time =    3144.0000000000000     
Ne    0.000000    0.000000    4.233416
Ne    0.000000    0.000000    0.000000
           2
 Time =    3145.0000000000000     
Ne    0.000000    0.000000    4.233416
Ne    0.000000    0.000000    0.000000
           2
 Time =    3146.0000000000000     
Ne    0.000000    0.000000    4.233416
Ne    0.000000    0.000000    0.000000
           2
 Time =    3147.0000000000000     
Ne    0.000000    0.000000    4.233416
Ne    0.000000    0.000000    0.000000
           2
 Time =    3148.0000000000000     
Ne    0.000000    0.000000    4.233416
Ne    0.000000    0.000000    0.000000
           2
 Time =    3149.0000000000000     
Ne    0.000000    0.000000    4.233416
Ne    0.000000    0.000000    0.000000
           2
 Time =    3150.0000000000000     
Ne    0.000000    0.000000    4.233416
Ne    0.000000    0.000000    0.000000
           2
 Time =    3151.0000000000000     
Ne    0.000000    0.000000    4.233416
Ne    0.000000    0.000000    0.000000
           2
 Time =    3152.0000000000000     
Ne    0.000000    0.000000    4.233416
Ne    0.000000    0.000000    0.000000
           2
 Time =    3153.0000000000000     
Ne    0.000000    0.000000    4.233416
Ne    0.000000    0.000000    0.000000
           2
 Time =    3154.0000000000000     
Ne    0.000000    0.000000    4.233416
Ne    0.000000    0.000000    0.000000
           2
 Time =    3155.0000000000000     
Ne    0.000000    0.000000    4.233416
Ne    0.000000    0.000000    0.000000
           2
 Time =    3156.0000000000000     
Ne    0.000000    0.000000    4.233416
Ne    0.000000    0.000000    0.000000
           2
 Time =    3157.0000000000000     
Ne    0.000000    0.000000    4.233416
Ne    0.000000    0.000000    0.000000
           2
 Time =    3158.0000000000000     
Ne    0.000000    0.000000    4.233416
Ne    0.000000    0.000000    0.000000
           2
 Time =    3159.0000000000000     
Ne    0.000000    0.000000    4.233416
Ne    0.000000    0.000000    0.000000
           2
 Time =    3160.0000000000000     
Ne    0.000000    0.000000    4.233416
Ne    0.000000    0.000000    0.000000
           2
 Time =    3161.0000000000000     
Ne    0.000000    0.000000    4.233416
Ne    0.000000    0.000000    0.000000
           2
 Time =    3162.0000000000000     
Ne    0.000000    0.000000    4.233416
Ne    0.000000    0.000000    0.000000
           2
 Time =    3163.0000000000000     
Ne    0.000000    0.000000    4.233416
Ne    0.000000    0.000000    0.000000
           2
 Time =    3164.0000000000000     
Ne    0.000000    0.000000    4.233416
Ne    0.000000    0.000000    0.000000
           2
 Time =    3165.0000000000000     
Ne    0.000000    0.000000    4.233416
Ne    0.000000    0.000000    0.000000
           2
 Time =    3166.0000000000000     
Ne    0.000000    0.000000    4.233416
Ne    0.000000    0.000000    0.000000
           2
 Time =    3167.0000000000000     
Ne    0.000000    0.000000    4.233416
Ne    0.000000    0.000000    0.000000
           2
 Time =    3168.0000000000000     
Ne    0.000000    0.000000    4.233416
Ne    0.000000    0.000000    0.000000
           2
 Time =    3169.0000000000000     
Ne    0.000000    0.000000    4.233416
Ne    0.000000    0.000000    0.000000
           2
 Time =    3170.0000000000000     
Ne    0.000000    0.000000    4.233416
Ne    0.000000    0.000000    0.000000
           2
 Time =    3171.0000000000000     
Ne    0.000000    0.000000    4.233416
Ne    0.000000    0.000000    0.000000
           2
 Time =    3172.0000000000000     
Ne    0.000000    0.000000    4.233416
Ne    0.000000    0.000000    0.000000
           2
 Time =    3173.0000000000000     
Ne    0.000000    0.000000    4.233416
Ne    0.000000    0.000000    0.000000
           2
 Time =    3174.0000000000000     
Ne    0.000000    0.000000    4.233416
Ne    0.000000    0.000000    0.000000
           2
 Time =    3175.0000000000000     
Ne    0.000000    0.000000    4.233416
Ne    0.000000    0.000000    0.000000
           2
 Time =    3176.0000000000000     
Ne    0.000000    0.000000    4.233416
Ne    0.000000    0.000000    0.000000
           2
 Time =    3177.0000000000000     
Ne    0.000000    0.000000    4.233416
Ne    0.000000    0.000000    0.000000
           2
 Time =    3178.0000000000000     
Ne    0.000000    0.000000    4.233416
Ne    0.000000    0.000000    0.000000
           2
 Time =    3179.0000000000000     
Ne    0.000000    0.000000    4.233416
Ne    0.000000    0.000000    0.000000
           2
 Time =    3180.0000000000000     
Ne    0.000000    0.000000    4.233416
Ne    0.000000    0.000000    0.000000
           2
 Time =    3181.0000000000000     
Ne    0.000000    0.000000    4.233416
Ne    0.000000    0.000000    0.000000
           2
 Time =    3182.0000000000000     
Ne    0.000000    0.000000    4.233416
Ne    0.000000    0.000000    0.000000
           2
 Time =    3183.0000000000000     
Ne    0.000000    0.000000    4.233416
Ne    0.000000    0.000000    0.000000
           2
 Time =    3184.0000000000000     
Ne    0.000000    0.000000    4.233416
Ne    0.000000    0.000000    0.000000
           2
 Time =    3185.0000000000000     
Ne    0.000000    0.000000    4.233416
Ne    0.000000    0.000000    0.000000
           2
 Time =    3186.0000000000000     
Ne    0.000000    0.000000    4.233416
Ne    0.000000    0.000000    0.000000
           2
 Time =    3187.0000000000000     
Ne    0.000000    0.000000    4.233416
Ne    0.000000    0.000000    0.000000
           2
 Time =    3188.0000000000000     
Ne    0.000000    0.000000    4.233416
Ne    0.000000    0.000000    0.000000
           2
 Time =    3189.0000000000000     
Ne    0.000000    0.000000    4.233416
Ne    0.000000    0.000000    0.000000
           2
 Time =    3190.0000000000000     
Ne    0.000000    0.000000    4.233416
Ne    0.000000    0.000000    0.000000
           2
 Time =    3191.0000000000000     
Ne    0.000000    0.000000    4.233416
Ne    0.000000    0.000000    0.000000
           2
 Time =    3192.0000000000000     
Ne    0.000000    0.000000    4.233416
Ne    0.000000    0.000000    0.000000
           2
 Time =    3193.0000000000000     
Ne    0.000000    0.000000    4.233416
Ne    0.000000    0.000000    0.000000
           2
 Time =    3194.0000000000000     
Ne    0.000000    0.000000    4.233416
Ne    0.000000    0.000000    0.000000
           2
 Time =    3195.0000000000000     
Ne    0.000000    0.000000    4.233416
Ne    0.000000    0.000000    0.000000
           2
 Time =    3196.0000000000000     
Ne    0.000000    0.000000    4.233416
Ne    0.000000    0.000000    0.000000
           2
 Time =    3197.0000000000000     
Ne    0.000000    0.000000    4.233416
Ne    0.000000    0.000000    0.000000
           2
 Time =    3198.0000000000000     
Ne    0.000000    0.000000    4.233416
Ne    0.000000    0.000000    0.000000
           2
 Time =    3199.0000000000000     
Ne    0.000000    0.000000    4.233416
Ne    0.000000    0.000000    0.000000
           2
 Time =    3200.0000000000000     
Ne    0.000000    0.000000    4.233416
Ne    0.000000    0.000000    0.000000
           2
 Time =    3201.0000000000000     
Ne    0.000000    0.000000    4.233416
Ne    0.000000    0.000000    0.000000
           2
 Time =    3202.0000000000000     
Ne    0.000000    0.000000    4.233416
Ne    0.000000    0.000000    0.000000
           2
 Time =    3203.0000000000000     
Ne    0.000000    0.000000    4.233416
Ne    0.000000    0.000000    0.000000
           2
 Time =    3204.0000000000000     
Ne    0.000000    0.000000    4.233416
Ne    0.000000    0.000000    0.000000
           2
 Time =    3205.0000000000000     
Ne    0.000000    0.000000    4.233416
Ne    0.000000    0.000000    0.000000
           2
 Time =    3206.0000000000000     
Ne    0.000000    0.000000    4.233416
Ne    0.000000    0.000000    0.000000
           2
 Time =    3207.0000000000000     
Ne    0.000000    0.000000    4.233416
Ne    0.000000    0.000000    0.000000
           2
 Time =    3208.0000000000000     
Ne    0.000000    0.000000    4.233416
Ne    0.000000    0.000000    0.000000
           2
 Time =    3209.0000000000000     
Ne    0.000000    0.000000    4.233416
Ne    0.000000    0.000000    0.000000
           2
 Time =    3210.0000000000000     
Ne    0.000000    0.000000    4.233416
Ne    0.000000    0.000000    0.000000
           2
 Time =    3211.0000000000000     
Ne    0.000000    0.000000    4.233416
Ne    0.000000    0.000000    0.000000
           2
 Time =    3212.0000000000000     
Ne    0.000000    0.000000    4.233416
Ne    0.000000    0.000000    0.000000
           2
 Time =    3213.0000000000000     
Ne    0.000000    0.000000    4.233416
Ne    0.000000    0.000000    0.000000
           2
 Time =    3214.0000000000000     
Ne    0.000000    0.000000    4.233416
Ne    0.000000    0.000000    0.000000
           2
 Time =    3215.0000000000000     
Ne    0.000000    0.000000    4.233416
Ne    0.000000    0.000000    0.000000
           2
 Time =    3216.0000000000000     
Ne    0.000000    0.000000    4.233416
Ne    0.000000    0.000000    0.000000
           2
 Time =    3217.0000000000000     
Ne    0.000000    0.000000    4.233416
Ne    0.000000    0.000000    0.000000
           2
 Time =    3218.0000000000000     
Ne    0.000000    0.000000    4.233416
Ne    0.000000    0.000000    0.000000
           2
 Time =    3219.0000000000000     
Ne    0.000000    0.000000    4.233416
Ne    0.000000    0.000000    0.000000
           2
 Time =    3220.0000000000000     
Ne    0.000000    0.000000    4.233416
Ne    0.000000    0.000000    0.000000
           2
 Time =    3221.0000000000000     
Ne    0.000000    0.000000    4.233416
Ne    0.000000    0.000000    0.000000
           2
 Time =    3222.0000000000000     
Ne    0.000000    0.000000    4.233416
Ne    0.000000    0.000000    0.000000
           2
 Time =    3223.0000000000000     
Ne    0.000000    0.000000    4.233416
Ne    0.000000    0.000000    0.000000
           2
 Time =    3224.0000000000000     
Ne    0.000000    0.000000    4.233416
Ne    0.000000    0.000000    0.000000
           2
 Time =    3225.0000000000000     
Ne    0.000000    0.000000    4.233416
Ne    0.000000    0.000000    0.000000
           2
 Time =    3226.0000000000000     
Ne    0.000000    0.000000    4.233416
Ne    0.000000    0.000000    0.000000
           2
 Time =    3227.0000000000000     
Ne    0.000000    0.000000    4.233416
Ne    0.000000    0.000000    0.000000
           2
 Time =    3228.0000000000000     
Ne    0.000000    0.000000    4.233416
Ne    0.000000    0.000000    0.000000
           2
 Time =    3229.0000000000000     
Ne    0.000000    0.000000    4.233416
Ne    0.000000    0.000000    0.000000
           2
 Time =    3230.0000000000000     
Ne    0.000000    0.000000    4.233416
Ne    0.000000    0.000000    0.000000
           2
 Time =    3231.0000000000000     
Ne    0.000000    0.000000    4.233416
Ne    0.000000    0.000000    0.000000
           2
 Time =    3232.0000000000000     
Ne    0.000000    0.000000    4.233416
Ne    0.000000    0.000000    0.000000
           2
 Time =    3233.0000000000000     
Ne    0.000000    0.000000    4.233416
Ne    0.000000    0.000000    0.000000
           2
 Time =    3234.0000000000000     
Ne    0.000000    0.000000    4.233416
Ne    0.000000    0.000000    0.000000
           2
 Time =    3235.0000000000000     
Ne    0.000000    0.000000    4.233416
Ne    0.000000    0.000000    0.000000
           2
 Time =    3236.0000000000000     
Ne    0.000000    0.000000    4.233416
Ne    0.000000    0.000000    0.000000
           2
 Time =    3237.0000000000000     
Ne    0.000000    0.000000    4.233416
Ne    0.000000    0.000000    0.000000
           2
 Time =    3238.0000000000000     
Ne    0.000000    0.000000    4.233416
Ne    0.000000    0.000000    0.000000
           2
 Time =    3239.0000000000000     
Ne    0.000000    0.000000    4.233416
Ne    0.000000    0.000000    0.000000
           2
 Time =    3240.0000000000000     
Ne    0.000000    0.000000    4.233416
Ne    0.000000    0.000000    0.000000
           2
 Time =    3241.0000000000000     
Ne    0.000000    0.000000    4.233416
Ne    0.000000    0.000000    0.000000
           2
 Time =    3242.0000000000000     
Ne    0.000000    0.000000    4.233416
Ne    0.000000    0.000000    0.000000
           2
 Time =    3243.0000000000000     
Ne    0.000000    0.000000    4.233416
Ne    0.000000    0.000000    0.000000
           2
 Time =    3244.0000000000000     
Ne    0.000000    0.000000    4.233416
Ne    0.000000    0.000000    0.000000
           2
 Time =    3245.0000000000000     
Ne    0.000000    0.000000    4.233416
Ne    0.000000    0.000000    0.000000
           2
 Time =    3246.0000000000000     
Ne    0.000000    0.000000    4.233416
Ne    0.000000    0.000000    0.000000
           2
 Time =    3247.0000000000000     
Ne    0.000000    0.000000    4.233416
Ne    0.000000    0.000000    0.000000
           2
 Time =    3248.0000000000000     
Ne    0.000000    0.000000    4.233416
Ne    0.000000    0.000000    0.000000
           2
 Time =    3249.0000000000000     
Ne    0.000000    0.000000    4.233416
Ne    0.000000    0.000000    0.000000
           2
 Time =    3250.0000000000000     
Ne    0.000000    0.000000    4.233416
Ne    0.000000    0.000000    0.000000
           2
 Time =    3251.0000000000000     
Ne    0.000000    0.000000    4.233416
Ne    0.000000    0.000000    0.000000
           2
 Time =    3252.0000000000000     
Ne    0.000000    0.000000    4.233416
Ne    0.000000    0.000000    0.000000
           2
 Time =    3253.0000000000000     
Ne    0.000000    0.000000    4.233416
Ne    0.000000    0.000000    0.000000
           2
 Time =    3254.0000000000000     
Ne    0.000000    0.000000    4.233416
Ne    0.000000    0.000000    0.000000
           2
 Time =    3255.0000000000000     
Ne    0.000000    0.000000    4.233416
Ne    0.000000    0.000000    0.000000
           2
 Time =    3256.0000000000000     
Ne    0.000000    0.000000    4.233416
Ne    0.000000    0.000000    0.000000
           2
 Time =    3257.0000000000000     
Ne    0.000000    0.000000    4.233416
Ne    0.000000    0.000000    0.000000
           2
 Time =    3258.0000000000000     
Ne    0.000000    0.000000    4.233416
Ne    0.000000    0.000000    0.000000
           2
 Time =    3259.0000000000000     
Ne    0.000000    0.000000    4.233416
Ne    0.000000    0.000000    0.000000
           2
 Time =    3260.0000000000000     
Ne    0.000000    0.000000    4.233416
Ne    0.000000    0.000000    0.000000
           2
 Time =    3261.0000000000000     
Ne    0.000000    0.000000    4.233416
Ne    0.000000    0.000000    0.000000
           2
 Time =    3262.0000000000000     
Ne    0.000000    0.000000    4.233416
Ne    0.000000    0.000000    0.000000
           2
 Time =    3263.0000000000000     
Ne    0.000000    0.000000    4.233416
Ne    0.000000    0.000000    0.000000
           2
 Time =    3264.0000000000000     
Ne    0.000000    0.000000    4.233416
Ne    0.000000    0.000000    0.000000
           2
 Time =    3265.0000000000000     
Ne    0.000000    0.000000    4.233416
Ne    0.000000    0.000000    0.000000
           2
 Time =    3266.0000000000000     
Ne    0.000000    0.000000    4.233416
Ne    0.000000    0.000000    0.000000
           2
 Time =    3267.0000000000000     
Ne    0.000000    0.000000    4.233416
Ne    0.000000    0.000000    0.000000
           2
 Time =    3268.0000000000000     
Ne    0.000000    0.000000    4.233416
Ne    0.000000    0.000000    0.000000
           2
 Time =    3269.0000000000000     
Ne    0.000000    0.000000    4.233416
Ne    0.000000    0.000000    0.000000
           2
 Time =    3270.0000000000000     
Ne    0.000000    0.000000    4.233416
Ne    0.000000    0.000000    0.000000
           2
 Time =    3271.0000000000000     
Ne    0.000000    0.000000    4.233416
Ne    0.000000    0.000000    0.000000
           2
 Time =    3272.0000000000000     
Ne    0.000000    0.000000    4.233416
Ne    0.000000    0.000000    0.000000
           2
 Time =    3273.0000000000000     
Ne    0.000000    0.000000    4.233416
Ne    0.000000    0.000000    0.000000
           2
 Time =    3274.0000000000000     
Ne    0.000000    0.000000    4.233416
Ne    0.000000    0.000000    0.000000
           2
 Time =    3275.0000000000000     
Ne    0.000000    0.000000    4.233416
Ne    0.000000    0.000000    0.000000
           2
 Time =    3276.0000000000000     
Ne    0.000000    0.000000    4.233416
Ne    0.000000    0.000000    0.000000
           2
 Time =    3277.0000000000000     
Ne    0.000000    0.000000    4.233416
Ne    0.000000    0.000000    0.000000
           2
 Time =    3278.0000000000000     
Ne    0.000000    0.000000    4.233416
Ne    0.000000    0.000000    0.000000
           2
 Time =    3279.0000000000000     
Ne    0.000000    0.000000    4.233416
Ne    0.000000    0.000000    0.000000
           2
 Time =    3280.0000000000000     
Ne    0.000000    0.000000    4.233416
Ne    0.000000    0.000000    0.000000
           2
 Time =    3281.0000000000000     
Ne    0.000000    0.000000    4.233416
Ne    0.000000    0.000000    0.000000
           2
 Time =    3282.0000000000000     
Ne    0.000000    0.000000    4.233416
Ne    0.000000    0.000000    0.000000
           2
 Time =    3283.0000000000000     
Ne    0.000000    0.000000    4.233416
Ne    0.000000    0.000000    0.000000
           2
 Time =    3284.0000000000000     
Ne    0.000000    0.000000    4.233416
Ne    0.000000    0.000000    0.000000
           2
 Time =    3285.0000000000000     
Ne    0.000000    0.000000    4.233416
Ne    0.000000    0.000000    0.000000
           2
 Time =    3286.0000000000000     
Ne    0.000000    0.000000    4.233416
Ne    0.000000    0.000000    0.000000
           2
 Time =    3287.0000000000000     
Ne    0.000000    0.000000    4.233416
Ne    0.000000    0.000000    0.000000
           2
 Time =    3288.0000000000000     
Ne    0.000000    0.000000    4.233416
Ne    0.000000    0.000000    0.000000
           2
 Time =    3289.0000000000000     
Ne    0.000000    0.000000    4.233416
Ne    0.000000    0.000000    0.000000
           2
 Time =    3290.0000000000000     
Ne    0.000000    0.000000    4.233416
Ne    0.000000    0.000000    0.000000
           2
 Time =    3291.0000000000000     
Ne    0.000000    0.000000    4.233416
Ne    0.000000    0.000000    0.000000
           2
 Time =    3292.0000000000000     
Ne    0.000000    0.000000    4.233416
Ne    0.000000    0.000000    0.000000
           2
 Time =    3293.0000000000000     
Ne    0.000000    0.000000    4.233416
Ne    0.000000    0.000000    0.000000
           2
 Time =    3294.0000000000000     
Ne    0.000000    0.000000    4.233416
Ne    0.000000    0.000000    0.000000
           2
 Time =    3295.0000000000000     
Ne    0.000000    0.000000    4.233416
Ne    0.000000    0.000000    0.000000
           2
 Time =    3296.0000000000000     
Ne    0.000000    0.000000    4.233416
Ne    0.000000    0.000000    0.000000
           2
 Time =    3297.0000000000000     
Ne    0.000000    0.000000    4.233416
Ne    0.000000    0.000000    0.000000
           2
 Time =    3298.0000000000000     
Ne    0.000000    0.000000    4.233416
Ne    0.000000    0.000000    0.000000
           2
 Time =    3299.0000000000000     
Ne    0.000000    0.000000    4.233416
Ne    0.000000    0.000000    0.000000
           2
 Time =    3300.0000000000000     
Ne    0.000000    0.000000    4.233416
Ne    0.000000    0.000000    0.000000
           2
 Time =    3301.0000000000000     
Ne    0.000000    0.000000    4.233416
Ne    0.000000    0.000000    0.000000
           2
 Time =    3302.0000000000000     
Ne    0.000000    0.000000    4.233416
Ne    0.000000    0.000000    0.000000
           2
 Time =    3303.0000000000000     
Ne    0.000000    0.000000    4.233416
Ne    0.000000    0.000000    0.000000
           2
 Time =    3304.0000000000000     
Ne    0.000000    0.000000    4.233416
Ne    0.000000    0.000000    0.000000
           2
 Time =    3305.0000000000000     
Ne    0.000000    0.000000    4.233416
Ne    0.000000    0.000000    0.000000
           2
 Time =    3306.0000000000000     
Ne    0.000000    0.000000    4.233416
Ne    0.000000    0.000000    0.000000
           2
 Time =    3307.0000000000000     
Ne    0.000000    0.000000    4.233416
Ne    0.000000    0.000000    0.000000
           2
 Time =    3308.0000000000000     
Ne    0.000000    0.000000    4.233416
Ne    0.000000    0.000000    0.000000
           2
 Time =    3309.0000000000000     
Ne    0.000000    0.000000    4.233416
Ne    0.000000    0.000000    0.000000
           2
 Time =    3310.0000000000000     
Ne    0.000000    0.000000    4.233416
Ne    0.000000    0.000000    0.000000
           2
 Time =    3311.0000000000000     
Ne    0.000000    0.000000    4.233416
Ne    0.000000    0.000000    0.000000
           2
 Time =    3312.0000000000000     
Ne    0.000000    0.000000    4.233416
Ne    0.000000    0.000000    0.000000
           2
 Time =    3313.0000000000000     
Ne    0.000000    0.000000    4.233416
Ne    0.000000    0.000000    0.000000
           2
 Time =    3314.0000000000000     
Ne    0.000000    0.000000    4.233416
Ne    0.000000    0.000000    0.000000
           2
 Time =    3315.0000000000000     
Ne    0.000000    0.000000    4.233416
Ne    0.000000    0.000000    0.000000
           2
 Time =    3316.0000000000000     
Ne    0.000000    0.000000    4.233416
Ne    0.000000    0.000000    0.000000
           2
 Time =    3317.0000000000000     
Ne    0.000000    0.000000    4.233416
Ne    0.000000    0.000000    0.000000
           2
 Time =    3318.0000000000000     
Ne    0.000000    0.000000    4.233416
Ne    0.000000    0.000000    0.000000
           2
 Time =    3319.0000000000000     
Ne    0.000000    0.000000    4.233416
Ne    0.000000    0.000000    0.000000
           2
 Time =    3320.0000000000000     
Ne    0.000000    0.000000    4.233416
Ne    0.000000    0.000000    0.000000
           2
 Time =    3321.0000000000000     
Ne    0.000000    0.000000    4.233416
Ne    0.000000    0.000000    0.000000
           2
 Time =    3322.0000000000000     
Ne    0.000000    0.000000    4.233416
Ne    0.000000    0.000000    0.000000
           2
 Time =    3323.0000000000000     
Ne    0.000000    0.000000    4.233416
Ne    0.000000    0.000000    0.000000
           2
 Time =    3324.0000000000000     
Ne    0.000000    0.000000    4.233416
Ne    0.000000    0.000000    0.000000
           2
 Time =    3325.0000000000000     
Ne    0.000000    0.000000    4.233416
Ne    0.000000    0.000000    0.000000
           2
 Time =    3326.0000000000000     
Ne    0.000000    0.000000    4.233416
Ne    0.000000    0.000000    0.000000
           2
 Time =    3327.0000000000000     
Ne    0.000000    0.000000    4.233416
Ne    0.000000    0.000000    0.000000
           2
 Time =    3328.0000000000000     
Ne    0.000000    0.000000    4.233416
Ne    0.000000    0.000000    0.000000
           2
 Time =    3329.0000000000000     
Ne    0.000000    0.000000    4.233416
Ne    0.000000    0.000000    0.000000
           2
 Time =    3330.0000000000000     
Ne    0.000000    0.000000    4.233416
Ne    0.000000    0.000000    0.000000
           2
 Time =    3331.0000000000000     
Ne    0.000000    0.000000    4.233416
Ne    0.000000    0.000000    0.000000
           2
 Time =    3332.0000000000000     
Ne    0.000000    0.000000    4.233416
Ne    0.000000    0.000000    0.000000
           2
 Time =    3333.0000000000000     
Ne    0.000000    0.000000    4.233416
Ne    0.000000    0.000000    0.000000
           2
 Time =    3334.0000000000000     
Ne    0.000000    0.000000    4.233416
Ne    0.000000    0.000000    0.000000
           2
 Time =    3335.0000000000000     
Ne    0.000000    0.000000    4.233416
Ne    0.000000    0.000000    0.000000
           2
 Time =    3336.0000000000000     
Ne    0.000000    0.000000    4.233416
Ne    0.000000    0.000000    0.000000
           2
 Time =    3337.0000000000000     
Ne    0.000000    0.000000    4.233416
Ne    0.000000    0.000000    0.000000
           2
 Time =    3338.0000000000000     
Ne    0.000000    0.000000    4.233416
Ne    0.000000    0.000000    0.000000
           2
 Time =    3339.0000000000000     
Ne    0.000000    0.000000    4.233416
Ne    0.000000    0.000000    0.000000
           2
 Time =    3340.0000000000000     
Ne    0.000000    0.000000    4.233416
Ne    0.000000    0.000000    0.000000
           2
 Time =    3341.0000000000000     
Ne    0.000000    0.000000    4.233416
Ne    0.000000    0.000000    0.000000
           2
 Time =    3342.0000000000000     
Ne    0.000000    0.000000    4.233416
Ne    0.000000    0.000000    0.000000
           2
 Time =    3343.0000000000000     
Ne    0.000000    0.000000    4.233416
Ne    0.000000    0.000000    0.000000
           2
 Time =    3344.0000000000000     
Ne    0.000000    0.000000    4.233416
Ne    0.000000    0.000000    0.000000
           2
 Time =    3345.0000000000000     
Ne    0.000000    0.000000    4.233416
Ne    0.000000    0.000000    0.000000
           2
 Time =    3346.0000000000000     
Ne    0.000000    0.000000    4.233416
Ne    0.000000    0.000000    0.000000
           2
 Time =    3347.0000000000000     
Ne    0.000000    0.000000    4.233416
Ne    0.000000    0.000000    0.000000
           2
 Time =    3348.0000000000000     
Ne    0.000000    0.000000    4.233416
Ne    0.000000    0.000000    0.000000
           2
 Time =    3349.0000000000000     
Ne    0.000000    0.000000    4.233416
Ne    0.000000    0.000000    0.000000
           2
 Time =    3350.0000000000000     
Ne    0.000000    0.000000    4.233416
Ne    0.000000    0.000000    0.000000
           2
 Time =    3351.0000000000000     
Ne    0.000000    0.000000    4.233416
Ne    0.000000    0.000000    0.000000
           2
 Time =    3352.0000000000000     
Ne    0.000000    0.000000    4.233416
Ne    0.000000    0.000000    0.000000
           2
 Time =    3353.0000000000000     
Ne    0.000000    0.000000    4.233416
Ne    0.000000    0.000000    0.000000
           2
 Time =    3354.0000000000000     
Ne    0.000000    0.000000    4.233416
Ne    0.000000    0.000000    0.000000
           2
 Time =    3355.0000000000000     
Ne    0.000000    0.000000    4.233416
Ne    0.000000    0.000000    0.000000
           2
 Time =    3356.0000000000000     
Ne    0.000000    0.000000    4.233416
Ne    0.000000    0.000000    0.000000
           2
 Time =    3357.0000000000000     
Ne    0.000000    0.000000    4.233416
Ne    0.000000    0.000000    0.000000
           2
 Time =    3358.0000000000000     
Ne    0.000000    0.000000    4.233416
Ne    0.000000    0.000000    0.000000
           2
 Time =    3359.0000000000000     
Ne    0.000000    0.000000    4.233416
Ne    0.000000    0.000000    0.000000
           2
 Time =    3360.0000000000000     
Ne    0.000000    0.000000    4.233416
Ne    0.000000    0.000000    0.000000
           2
 Time =    3361.0000000000000     
Ne    0.000000    0.000000    4.233416
Ne    0.000000    0.000000    0.000000
           2
 Time =    3362.0000000000000     
Ne    0.000000    0.000000    4.233416
Ne    0.000000    0.000000    0.000000
           2
 Time =    3363.0000000000000     
Ne    0.000000    0.000000    4.233416
Ne    0.000000    0.000000    0.000000
           2
 Time =    3364.0000000000000     
Ne    0.000000    0.000000    4.233416
Ne    0.000000    0.000000    0.000000
           2
 Time =    3365.0000000000000     
Ne    0.000000    0.000000    4.233416
Ne    0.000000    0.000000    0.000000
           2
 Time =    3366.0000000000000     
Ne    0.000000    0.000000    4.233416
Ne    0.000000    0.000000    0.000000
           2
 Time =    3367.0000000000000     
Ne    0.000000    0.000000    4.233416
Ne    0.000000    0.000000    0.000000
           2
 Time =    3368.0000000000000     
Ne    0.000000    0.000000    4.233416
Ne    0.000000    0.000000    0.000000
           2
 Time =    3369.0000000000000     
Ne    0.000000    0.000000    4.233416
Ne    0.000000    0.000000    0.000000
           2
 Time =    3370.0000000000000     
Ne    0.000000    0.000000    4.233416
Ne    0.000000    0.000000    0.000000
           2
 Time =    3371.0000000000000     
Ne    0.000000    0.000000    4.233416
Ne    0.000000    0.000000    0.000000
           2
 Time =    3372.0000000000000     
Ne    0.000000    0.000000    4.233416
Ne    0.000000    0.000000    0.000000
           2
 Time =    3373.0000000000000     
Ne    0.000000    0.000000    4.233416
Ne    0.000000    0.000000    0.000000
           2
 Time =    3374.0000000000000     
Ne    0.000000    0.000000    4.233416
Ne    0.000000    0.000000    0.000000
           2
 Time =    3375.0000000000000     
Ne    0.000000    0.000000    4.233416
Ne    0.000000    0.000000    0.000000
           2
 Time =    3376.0000000000000     
Ne    0.000000    0.000000    4.233416
Ne    0.000000    0.000000    0.000000
           2
 Time =    3377.0000000000000     
Ne    0.000000    0.000000    4.233416
Ne    0.000000    0.000000    0.000000
           2
 Time =    3378.0000000000000     
Ne    0.000000    0.000000    4.233416
Ne    0.000000    0.000000    0.000000
           2
 Time =    3379.0000000000000     
Ne    0.000000    0.000000    4.233416
Ne    0.000000    0.000000    0.000000
           2
 Time =    3380.0000000000000     
Ne    0.000000    0.000000    4.233416
Ne    0.000000    0.000000    0.000000
           2
 Time =    3381.0000000000000     
Ne    0.000000    0.000000    4.233416
Ne    0.000000    0.000000    0.000000
           2
 Time =    3382.0000000000000     
Ne    0.000000    0.000000    4.233416
Ne    0.000000    0.000000    0.000000
           2
 Time =    3383.0000000000000     
Ne    0.000000    0.000000    4.233416
Ne    0.000000    0.000000    0.000000
           2
 Time =    3384.0000000000000     
Ne    0.000000    0.000000    4.233416
Ne    0.000000    0.000000    0.000000
           2
 Time =    3385.0000000000000     
Ne    0.000000    0.000000    4.233416
Ne    0.000000    0.000000    0.000000
           2
 Time =    3386.0000000000000     
Ne    0.000000    0.000000    4.233416
Ne    0.000000    0.000000    0.000000
           2
 Time =    3387.0000000000000     
Ne    0.000000    0.000000    4.233416
Ne    0.000000    0.000000    0.000000
           2
 Time =    3388.0000000000000     
Ne    0.000000    0.000000    4.233416
Ne    0.000000    0.000000    0.000000
           2
 Time =    3389.0000000000000     
Ne    0.000000    0.000000    4.233416
Ne    0.000000    0.000000    0.000000
           2
 Time =    3390.0000000000000     
Ne    0.000000    0.000000    4.233416
Ne    0.000000    0.000000    0.000000
           2
 Time =    3391.0000000000000     
Ne    0.000000    0.000000    4.233416
Ne    0.000000    0.000000    0.000000
           2
 Time =    3392.0000000000000     
Ne    0.000000    0.000000    4.233416
Ne    0.000000    0.000000    0.000000
           2
 Time =    3393.0000000000000     
Ne    0.000000    0.000000    4.233416
Ne    0.000000    0.000000    0.000000
           2
 Time =    3394.0000000000000     
Ne    0.000000    0.000000    4.233416
Ne    0.000000    0.000000    0.000000
           2
 Time =    3395.0000000000000     
Ne    0.000000    0.000000    4.233416
Ne    0.000000    0.000000    0.000000
           2
 Time =    3396.0000000000000     
Ne    0.000000    0.000000    4.233416
Ne    0.000000    0.000000    0.000000
           2
 Time =    3397.0000000000000     
Ne    0.000000    0.000000    4.233416
Ne    0.000000    0.000000    0.000000
           2
 Time =    3398.0000000000000     
Ne    0.000000    0.000000    4.233416
Ne    0.000000    0.000000    0.000000
           2
 Time =    3399.0000000000000     
Ne    0.000000    0.000000    4.233416
Ne    0.000000    0.000000    0.000000
           2
 Time =    3400.0000000000000     
Ne    0.000000    0.000000    4.233416
Ne    0.000000    0.000000    0.000000
           2
 Time =    3401.0000000000000     
Ne    0.000000    0.000000    4.233416
Ne    0.000000    0.000000    0.000000
           2
 Time =    3402.0000000000000     
Ne    0.000000    0.000000    4.233416
Ne    0.000000    0.000000    0.000000
           2
 Time =    3403.0000000000000     
Ne    0.000000    0.000000    4.233416
Ne    0.000000    0.000000    0.000000
           2
 Time =    3404.0000000000000     
Ne    0.000000    0.000000    4.233416
Ne    0.000000    0.000000    0.000000
           2
 Time =    3405.0000000000000     
Ne    0.000000    0.000000    4.233416
Ne    0.000000    0.000000    0.000000
           2
 Time =    3406.0000000000000     
Ne    0.000000    0.000000    4.233416
Ne    0.000000    0.000000    0.000000
           2
 Time =    3407.0000000000000     
Ne    0.000000    0.000000    4.233416
Ne    0.000000    0.000000    0.000000
           2
 Time =    3408.0000000000000     
Ne    0.000000    0.000000    4.233416
Ne    0.000000    0.000000    0.000000
           2
 Time =    3409.0000000000000     
Ne    0.000000    0.000000    4.233416
Ne    0.000000    0.000000    0.000000
           2
 Time =    3410.0000000000000     
Ne    0.000000    0.000000    4.233416
Ne    0.000000    0.000000    0.000000
           2
 Time =    3411.0000000000000     
Ne    0.000000    0.000000    4.233416
Ne    0.000000    0.000000    0.000000
           2
 Time =    3412.0000000000000     
Ne    0.000000    0.000000    4.233416
Ne    0.000000    0.000000    0.000000
           2
 Time =    3413.0000000000000     
Ne    0.000000    0.000000    4.233416
Ne    0.000000    0.000000    0.000000
           2
 Time =    3414.0000000000000     
Ne    0.000000    0.000000    4.233416
Ne    0.000000    0.000000    0.000000
           2
 Time =    3415.0000000000000     
Ne    0.000000    0.000000    4.233416
Ne    0.000000    0.000000    0.000000
           2
 Time =    3416.0000000000000     
Ne    0.000000    0.000000    4.233416
Ne    0.000000    0.000000    0.000000
           2
 Time =    3417.0000000000000     
Ne    0.000000    0.000000    4.233416
Ne    0.000000    0.000000    0.000000
           2
 Time =    3418.0000000000000     
Ne    0.000000    0.000000    4.233416
Ne    0.000000    0.000000    0.000000
           2
 Time =    3419.0000000000000     
Ne    0.000000    0.000000    4.233416
Ne    0.000000    0.000000    0.000000
           2
 Time =    3420.0000000000000     
Ne    0.000000    0.000000    4.233416
Ne    0.000000    0.000000    0.000000
           2
 Time =    3421.0000000000000     
Ne    0.000000    0.000000    4.233416
Ne    0.000000    0.000000    0.000000
           2
 Time =    3422.0000000000000     
Ne    0.000000    0.000000    4.233416
Ne    0.000000    0.000000    0.000000
           2
 Time =    3423.0000000000000     
Ne    0.000000    0.000000    4.233416
Ne    0.000000    0.000000    0.000000
           2
 Time =    3424.0000000000000     
Ne    0.000000    0.000000    4.233416
Ne    0.000000    0.000000    0.000000
           2
 Time =    3425.0000000000000     
Ne    0.000000    0.000000    4.233416
Ne    0.000000    0.000000    0.000000
           2
 Time =    3426.0000000000000     
Ne    0.000000    0.000000    4.233416
Ne    0.000000    0.000000    0.000000
           2
 Time =    3427.0000000000000     
Ne    0.000000    0.000000    4.233416
Ne    0.000000    0.000000    0.000000
           2
 Time =    3428.0000000000000     
Ne    0.000000    0.000000    4.233416
Ne    0.000000    0.000000    0.000000
           2
 Time =    3429.0000000000000     
Ne    0.000000    0.000000    4.233416
Ne    0.000000    0.000000    0.000000
           2
 Time =    3430.0000000000000     
Ne    0.000000    0.000000    4.233416
Ne    0.000000    0.000000    0.000000
           2
 Time =    3431.0000000000000     
Ne    0.000000    0.000000    4.233416
Ne    0.000000    0.000000    0.000000
           2
 Time =    3432.0000000000000     
Ne    0.000000    0.000000    4.233416
Ne    0.000000    0.000000    0.000000
           2
 Time =    3433.0000000000000     
Ne    0.000000    0.000000    4.233416
Ne    0.000000    0.000000    0.000000
           2
 Time =    3434.0000000000000     
Ne    0.000000    0.000000    4.233416
Ne    0.000000    0.000000    0.000000
           2
 Time =    3435.0000000000000     
Ne    0.000000    0.000000    4.233416
Ne    0.000000    0.000000    0.000000
           2
 Time =    3436.0000000000000     
Ne    0.000000    0.000000    4.233416
Ne    0.000000    0.000000    0.000000
           2
 Time =    3437.0000000000000     
Ne    0.000000    0.000000    4.233416
Ne    0.000000    0.000000    0.000000
           2
 Time =    3438.0000000000000     
Ne    0.000000    0.000000    4.233416
Ne    0.000000    0.000000    0.000000
           2
 Time =    3439.0000000000000     
Ne    0.000000    0.000000    4.233416
Ne    0.000000    0.000000    0.000000
           2
 Time =    3440.0000000000000     
Ne    0.000000    0.000000    4.233416
Ne    0.000000    0.000000    0.000000
           2
 Time =    3441.0000000000000     
Ne    0.000000    0.000000    4.233416
Ne    0.000000    0.000000    0.000000
           2
 Time =    3442.0000000000000     
Ne    0.000000    0.000000    4.233416
Ne    0.000000    0.000000    0.000000
           2
 Time =    3443.0000000000000     
Ne    0.000000    0.000000    4.233416
Ne    0.000000    0.000000    0.000000
           2
 Time =    3444.0000000000000     
Ne    0.000000    0.000000    4.233416
Ne    0.000000    0.000000    0.000000
           2
 Time =    3445.0000000000000     
Ne    0.000000    0.000000    4.233416
Ne    0.000000    0.000000    0.000000
           2
 Time =    3446.0000000000000     
Ne    0.000000    0.000000    4.233416
Ne    0.000000    0.000000    0.000000
           2
 Time =    3447.0000000000000     
Ne    0.000000    0.000000    4.233416
Ne    0.000000    0.000000    0.000000
           2
 Time =    3448.0000000000000     
Ne    0.000000    0.000000    4.233416
Ne    0.000000    0.000000    0.000000
           2
 Time =    3449.0000000000000     
Ne    0.000000    0.000000    4.233416
Ne    0.000000    0.000000    0.000000
           2
 Time =    3450.0000000000000     
Ne    0.000000    0.000000    4.233416
Ne    0.000000    0.000000    0.000000
           2
 Time =    3451.0000000000000     
Ne    0.000000    0.000000    4.233416
Ne    0.000000    0.000000    0.000000
           2
 Time =    3452.0000000000000     
Ne    0.000000    0.000000    4.233416
Ne    0.000000    0.000000    0.000000
           2
 Time =    3453.0000000000000     
Ne    0.000000    0.000000    4.233416
Ne    0.000000    0.000000    0.000000
           2
 Time =    3454.0000000000000     
Ne    0.000000    0.000000    4.233416
Ne    0.000000    0.000000    0.000000
           2
 Time =    3455.0000000000000     
Ne    0.000000    0.000000    4.233416
Ne    0.000000    0.000000    0.000000
           2
 Time =    3456.0000000000000     
Ne    0.000000    0.000000    4.233416
Ne    0.000000    0.000000    0.000000
           2
 Time =    3457.0000000000000     
Ne    0.000000    0.000000    4.233416
Ne    0.000000    0.000000    0.000000
           2
 Time =    3458.0000000000000     
Ne    0.000000    0.000000    4.233416
Ne    0.000000    0.000000    0.000000
           2
 Time =    3459.0000000000000     
Ne    0.000000    0.000000    4.233416
Ne    0.000000    0.000000    0.000000
           2
 Time =    3460.0000000000000     
Ne    0.000000    0.000000    4.233416
Ne    0.000000    0.000000    0.000000
           2
 Time =    3461.0000000000000     
Ne    0.000000    0.000000    4.233416
Ne    0.000000    0.000000    0.000000
           2
 Time =    3462.0000000000000     
Ne    0.000000    0.000000    4.233416
Ne    0.000000    0.000000    0.000000
           2
 Time =    3463.0000000000000     
Ne    0.000000    0.000000    4.233416
Ne    0.000000    0.000000    0.000000
           2
 Time =    3464.0000000000000     
Ne    0.000000    0.000000    4.233416
Ne    0.000000    0.000000    0.000000
           2
 Time =    3465.0000000000000     
Ne    0.000000    0.000000    4.233416
Ne    0.000000    0.000000    0.000000
           2
 Time =    3466.0000000000000     
Ne    0.000000    0.000000    4.233416
Ne    0.000000    0.000000    0.000000
           2
 Time =    3467.0000000000000     
Ne    0.000000    0.000000    4.233416
Ne    0.000000    0.000000    0.000000
           2
 Time =    3468.0000000000000     
Ne    0.000000    0.000000    4.233416
Ne    0.000000    0.000000    0.000000
           2
 Time =    3469.0000000000000     
Ne    0.000000    0.000000    4.233416
Ne    0.000000    0.000000    0.000000
           2
 Time =    3470.0000000000000     
Ne    0.000000    0.000000    4.233416
Ne    0.000000    0.000000    0.000000
           2
 Time =    3471.0000000000000     
Ne    0.000000    0.000000    4.233416
Ne    0.000000    0.000000    0.000000
           2
 Time =    3472.0000000000000     
Ne    0.000000    0.000000    4.233416
Ne    0.000000    0.000000    0.000000
           2
 Time =    3473.0000000000000     
Ne    0.000000    0.000000    4.233416
Ne    0.000000    0.000000    0.000000
           2
 Time =    3474.0000000000000     
Ne    0.000000    0.000000    4.233416
Ne    0.000000    0.000000    0.000000
           2
 Time =    3475.0000000000000     
Ne    0.000000    0.000000    4.233416
Ne    0.000000    0.000000    0.000000
           2
 Time =    3476.0000000000000     
Ne    0.000000    0.000000    4.233416
Ne    0.000000    0.000000    0.000000
           2
 Time =    3477.0000000000000     
Ne    0.000000    0.000000    4.233416
Ne    0.000000    0.000000    0.000000
           2
 Time =    3478.0000000000000     
Ne    0.000000    0.000000    4.233416
Ne    0.000000    0.000000    0.000000
           2
 Time =    3479.0000000000000     
Ne    0.000000    0.000000    4.233416
Ne    0.000000    0.000000    0.000000
           2
 Time =    3480.0000000000000     
Ne    0.000000    0.000000    4.233416
Ne    0.000000    0.000000    0.000000
           2
 Time =    3481.0000000000000     
Ne    0.000000    0.000000    4.233416
Ne    0.000000    0.000000    0.000000
           2
 Time =    3482.0000000000000     
Ne    0.000000    0.000000    4.233416
Ne    0.000000    0.000000    0.000000
           2
 Time =    3483.0000000000000     
Ne    0.000000    0.000000    4.233416
Ne    0.000000    0.000000    0.000000
           2
 Time =    3484.0000000000000     
Ne    0.000000    0.000000    4.233416
Ne    0.000000    0.000000    0.000000
           2
 Time =    3485.0000000000000     
Ne    0.000000    0.000000    4.233416
Ne    0.000000    0.000000    0.000000
           2
 Time =    3486.0000000000000     
Ne    0.000000    0.000000    4.233416
Ne    0.000000    0.000000    0.000000
           2
 Time =    3487.0000000000000     
Ne    0.000000    0.000000    4.233416
Ne    0.000000    0.000000    0.000000
           2
 Time =    3488.0000000000000     
Ne    0.000000    0.000000    4.233416
Ne    0.000000    0.000000    0.000000
           2
 Time =    3489.0000000000000     
Ne    0.000000    0.000000    4.233416
Ne    0.000000    0.000000    0.000000
           2
 Time =    3490.0000000000000     
Ne    0.000000    0.000000    4.233416
Ne    0.000000    0.000000    0.000000
           2
 Time =    3491.0000000000000     
Ne    0.000000    0.000000    4.233416
Ne    0.000000    0.000000    0.000000
           2
 Time =    3492.0000000000000     
Ne    0.000000    0.000000    4.233416
Ne    0.000000    0.000000    0.000000
           2
 Time =    3493.0000000000000     
Ne    0.000000    0.000000    4.233416
Ne    0.000000    0.000000    0.000000
           2
 Time =    3494.0000000000000     
Ne    0.000000    0.000000    4.233416
Ne    0.000000    0.000000    0.000000
           2
 Time =    3495.0000000000000     
Ne    0.000000    0.000000    4.233416
Ne    0.000000    0.000000    0.000000
           2
 Time =    3496.0000000000000     
Ne    0.000000    0.000000    4.233416
Ne    0.000000    0.000000    0.000000
           2
 Time =    3497.0000000000000     
Ne    0.000000    0.000000    4.233416
Ne    0.000000    0.000000    0.000000
           2
 Time =    3498.0000000000000     
Ne    0.000000    0.000000    4.233416
Ne    0.000000    0.000000    0.000000
           2
 Time =    3499.0000000000000     
Ne    0.000000    0.000000    4.233416
Ne    0.000000    0.000000    0.000000
           2
 Time =    3500.0000000000000     
Ne    0.000000    0.000000    4.233416
Ne    0.000000    0.000000    0.000000
           2
 Time =    3501.0000000000000     
Ne    0.000000    0.000000    4.233416
Ne    0.000000    0.000000    0.000000
           2
 Time =    3502.0000000000000     
Ne    0.000000    0.000000    4.233416
Ne    0.000000    0.000000    0.000000
           2
 Time =    3503.0000000000000     
Ne    0.000000    0.000000    4.233416
Ne    0.000000    0.000000    0.000000
           2
 Time =    3504.0000000000000     
Ne    0.000000    0.000000    4.233416
Ne    0.000000    0.000000    0.000000
           2
 Time =    3505.0000000000000     
Ne    0.000000    0.000000    4.233416
Ne    0.000000    0.000000    0.000000
           2
 Time =    3506.0000000000000     
Ne    0.000000    0.000000    4.233416
Ne    0.000000    0.000000    0.000000
           2
 Time =    3507.0000000000000     
Ne    0.000000    0.000000    4.233416
Ne    0.000000    0.000000    0.000000
           2
 Time =    3508.0000000000000     
Ne    0.000000    0.000000    4.233416
Ne    0.000000    0.000000    0.000000
           2
 Time =    3509.0000000000000     
Ne    0.000000    0.000000    4.233416
Ne    0.000000    0.000000    0.000000
           2
 Time =    3510.0000000000000     
Ne    0.000000    0.000000    4.233416
Ne    0.000000    0.000000    0.000000
           2
 Time =    3511.0000000000000     
Ne    0.000000    0.000000    4.233416
Ne    0.000000    0.000000    0.000000
           2
 Time =    3512.0000000000000     
Ne    0.000000    0.000000    4.233416
Ne    0.000000    0.000000    0.000000
           2
 Time =    3513.0000000000000     
Ne    0.000000    0.000000    4.233416
Ne    0.000000    0.000000    0.000000
           2
 Time =    3514.0000000000000     
Ne    0.000000    0.000000    4.233416
Ne    0.000000    0.000000    0.000000
           2
 Time =    3515.0000000000000     
Ne    0.000000    0.000000    4.233416
Ne    0.000000    0.000000    0.000000
           2
 Time =    3516.0000000000000     
Ne    0.000000    0.000000    4.233416
Ne    0.000000    0.000000    0.000000
           2
 Time =    3517.0000000000000     
Ne    0.000000    0.000000    4.233416
Ne    0.000000    0.000000    0.000000
           2
 Time =    3518.0000000000000     
Ne    0.000000    0.000000    4.233416
Ne    0.000000    0.000000    0.000000
           2
 Time =    3519.0000000000000     
Ne    0.000000    0.000000    4.233416
Ne    0.000000    0.000000    0.000000
           2
 Time =    3520.0000000000000     
Ne    0.000000    0.000000    4.233416
Ne    0.000000    0.000000    0.000000
           2
 Time =    3521.0000000000000     
Ne    0.000000    0.000000    4.233416
Ne    0.000000    0.000000    0.000000
           2
 Time =    3522.0000000000000     
Ne    0.000000    0.000000    4.233416
Ne    0.000000    0.000000    0.000000
           2
 Time =    3523.0000000000000     
Ne    0.000000    0.000000    4.233416
Ne    0.000000    0.000000    0.000000
           2
 Time =    3524.0000000000000     
Ne    0.000000    0.000000    4.233416
Ne    0.000000    0.000000    0.000000
           2
 Time =    3525.0000000000000     
Ne    0.000000    0.000000    4.233416
Ne    0.000000    0.000000    0.000000
           2
 Time =    3526.0000000000000     
Ne    0.000000    0.000000    4.233416
Ne    0.000000    0.000000    0.000000
           2
 Time =    3527.0000000000000     
Ne    0.000000    0.000000    4.233416
Ne    0.000000    0.000000    0.000000
           2
 Time =    3528.0000000000000     
Ne    0.000000    0.000000    4.233416
Ne    0.000000    0.000000    0.000000
           2
 Time =    3529.0000000000000     
Ne    0.000000    0.000000    4.233416
Ne    0.000000    0.000000    0.000000
           2
 Time =    3530.0000000000000     
Ne    0.000000    0.000000    4.233416
Ne    0.000000    0.000000    0.000000
           2
 Time =    3531.0000000000000     
Ne    0.000000    0.000000    4.233416
Ne    0.000000    0.000000    0.000000
           2
 Time =    3532.0000000000000     
Ne    0.000000    0.000000    4.233416
Ne    0.000000    0.000000    0.000000
           2
 Time =    3533.0000000000000     
Ne    0.000000    0.000000    4.233416
Ne    0.000000    0.000000    0.000000
           2
 Time =    3534.0000000000000     
Ne    0.000000    0.000000    4.233416
Ne    0.000000    0.000000    0.000000
           2
 Time =    3535.0000000000000     
Ne    0.000000    0.000000    4.233416
Ne    0.000000    0.000000    0.000000
           2
 Time =    3536.0000000000000     
Ne    0.000000    0.000000    4.233416
Ne    0.000000    0.000000    0.000000
           2
 Time =    3537.0000000000000     
Ne    0.000000    0.000000    4.233416
Ne    0.000000    0.000000    0.000000
           2
 Time =    3538.0000000000000     
Ne    0.000000    0.000000    4.233416
Ne    0.000000    0.000000    0.000000
           2
 Time =    3539.0000000000000     
Ne    0.000000    0.000000    4.233416
Ne    0.000000    0.000000    0.000000
           2
 Time =    3540.0000000000000     
Ne    0.000000    0.000000    4.233416
Ne    0.000000    0.000000    0.000000
           2
 Time =    3541.0000000000000     
Ne    0.000000    0.000000    4.233416
Ne    0.000000    0.000000    0.000000
           2
 Time =    3542.0000000000000     
Ne    0.000000    0.000000    4.233416
Ne    0.000000    0.000000    0.000000
           2
 Time =    3543.0000000000000     
Ne    0.000000    0.000000    4.233416
Ne    0.000000    0.000000    0.000000
           2
 Time =    3544.0000000000000     
Ne    0.000000    0.000000    4.233416
Ne    0.000000    0.000000    0.000000
           2
 Time =    3545.0000000000000     
Ne    0.000000    0.000000    4.233416
Ne    0.000000    0.000000    0.000000
           2
 Time =    3546.0000000000000     
Ne    0.000000    0.000000    4.233416
Ne    0.000000    0.000000    0.000000
           2
 Time =    3547.0000000000000     
Ne    0.000000    0.000000    4.233416
Ne    0.000000    0.000000    0.000000
           2
 Time =    3548.0000000000000     
Ne    0.000000    0.000000    4.233416
Ne    0.000000    0.000000    0.000000
           2
 Time =    3549.0000000000000     
Ne    0.000000    0.000000    4.233416
Ne    0.000000    0.000000    0.000000
           2
 Time =    3550.0000000000000     
Ne    0.000000    0.000000    4.233416
Ne    0.000000    0.000000    0.000000
           2
 Time =    3551.0000000000000     
Ne    0.000000    0.000000    4.233416
Ne    0.000000    0.000000    0.000000
           2
 Time =    3552.0000000000000     
Ne    0.000000    0.000000    4.233416
Ne    0.000000    0.000000    0.000000
           2
 Time =    3553.0000000000000     
Ne    0.000000    0.000000    4.233416
Ne    0.000000    0.000000    0.000000
           2
 Time =    3554.0000000000000     
Ne    0.000000    0.000000    4.233416
Ne    0.000000    0.000000    0.000000
           2
 Time =    3555.0000000000000     
Ne    0.000000    0.000000    4.233416
Ne    0.000000    0.000000    0.000000
           2
 Time =    3556.0000000000000     
Ne    0.000000    0.000000    4.233416
Ne    0.000000    0.000000    0.000000
           2
 Time =    3557.0000000000000     
Ne    0.000000    0.000000    4.233416
Ne    0.000000    0.000000    0.000000
           2
 Time =    3558.0000000000000     
Ne    0.000000    0.000000    4.233416
Ne    0.000000    0.000000    0.000000
           2
 Time =    3559.0000000000000     
Ne    0.000000    0.000000    4.233416
Ne    0.000000    0.000000    0.000000
           2
 Time =    3560.0000000000000     
Ne    0.000000    0.000000    4.233416
Ne    0.000000    0.000000    0.000000
           2
 Time =    3561.0000000000000     
Ne    0.000000    0.000000    4.233416
Ne    0.000000    0.000000    0.000000
           2
 Time =    3562.0000000000000     
Ne    0.000000    0.000000    4.233416
Ne    0.000000    0.000000    0.000000
           2
 Time =    3563.0000000000000     
Ne    0.000000    0.000000    4.233416
Ne    0.000000    0.000000    0.000000
           2
 Time =    3564.0000000000000     
Ne    0.000000    0.000000    4.233416
Ne    0.000000    0.000000    0.000000
           2
 Time =    3565.0000000000000     
Ne    0.000000    0.000000    4.233416
Ne    0.000000    0.000000    0.000000
           2
 Time =    3566.0000000000000     
Ne    0.000000    0.000000    4.233416
Ne    0.000000    0.000000    0.000000
           2
 Time =    3567.0000000000000     
Ne    0.000000    0.000000    4.233416
Ne    0.000000    0.000000    0.000000
           2
 Time =    3568.0000000000000     
Ne    0.000000    0.000000    4.233416
Ne    0.000000    0.000000    0.000000
           2
 Time =    3569.0000000000000     
Ne    0.000000    0.000000    4.233416
Ne    0.000000    0.000000    0.000000
           2
 Time =    3570.0000000000000     
Ne    0.000000    0.000000    4.233416
Ne    0.000000    0.000000    0.000000
           2
 Time =    3571.0000000000000     
Ne    0.000000    0.000000    4.233416
Ne    0.000000    0.000000    0.000000
           2
 Time =    3572.0000000000000     
Ne    0.000000    0.000000    4.233416
Ne    0.000000    0.000000    0.000000
           2
 Time =    3573.0000000000000     
Ne    0.000000    0.000000    4.233416
Ne    0.000000    0.000000    0.000000
           2
 Time =    3574.0000000000000     
Ne    0.000000    0.000000    4.233416
Ne    0.000000    0.000000    0.000000
           2
 Time =    3575.0000000000000     
Ne    0.000000    0.000000    4.233416
Ne    0.000000    0.000000    0.000000
           2
 Time =    3576.0000000000000     
Ne    0.000000    0.000000    4.233416
Ne    0.000000    0.000000    0.000000
           2
 Time =    3577.0000000000000     
Ne    0.000000    0.000000    4.233416
Ne    0.000000    0.000000    0.000000
           2
 Time =    3578.0000000000000     
Ne    0.000000    0.000000    4.233416
Ne    0.000000    0.000000    0.000000
           2
 Time =    3579.0000000000000     
Ne    0.000000    0.000000    4.233416
Ne    0.000000    0.000000    0.000000
           2
 Time =    3580.0000000000000     
Ne    0.000000    0.000000    4.233416
Ne    0.000000    0.000000    0.000000
           2
 Time =    3581.0000000000000     
Ne    0.000000    0.000000    4.233416
Ne    0.000000    0.000000    0.000000
           2
 Time =    3582.0000000000000     
Ne    0.000000    0.000000    4.233416
Ne    0.000000    0.000000    0.000000
           2
 Time =    3583.0000000000000     
Ne    0.000000    0.000000    4.233416
Ne    0.000000    0.000000    0.000000
           2
 Time =    3584.0000000000000     
Ne    0.000000    0.000000    4.233416
Ne    0.000000    0.000000    0.000000
           2
 Time =    3585.0000000000000     
Ne    0.000000    0.000000    4.233416
Ne    0.000000    0.000000    0.000000
           2
 Time =    3586.0000000000000     
Ne    0.000000    0.000000    4.233416
Ne    0.000000    0.000000    0.000000
           2
 Time =    3587.0000000000000     
Ne    0.000000    0.000000    4.233416
Ne    0.000000    0.000000    0.000000
           2
 Time =    3588.0000000000000     
Ne    0.000000    0.000000    4.233416
Ne    0.000000    0.000000    0.000000
           2
 Time =    3589.0000000000000     
Ne    0.000000    0.000000    4.233416
Ne    0.000000    0.000000    0.000000
           2
 Time =    3590.0000000000000     
Ne    0.000000    0.000000    4.233416
Ne    0.000000    0.000000    0.000000
           2
 Time =    3591.0000000000000     
Ne    0.000000    0.000000    4.233416
Ne    0.000000    0.000000    0.000000
           2
 Time =    3592.0000000000000     
Ne    0.000000    0.000000    4.233416
Ne    0.000000    0.000000    0.000000
           2
 Time =    3593.0000000000000     
Ne    0.000000    0.000000    4.233416
Ne    0.000000    0.000000    0.000000
           2
 Time =    3594.0000000000000     
Ne    0.000000    0.000000    4.233416
Ne    0.000000    0.000000    0.000000
           2
 Time =    3595.0000000000000     
Ne    0.000000    0.000000    4.233416
Ne    0.000000    0.000000    0.000000
           2
 Time =    3596.0000000000000     
Ne    0.000000    0.000000    4.233416
Ne    0.000000    0.000000    0.000000
           2
 Time =    3597.0000000000000     
Ne    0.000000    0.000000    4.233416
Ne    0.000000    0.000000    0.000000
           2
 Time =    3598.0000000000000     
Ne    0.000000    0.000000    4.233416
Ne    0.000000    0.000000    0.000000
           2
 Time =    3599.0000000000000     
Ne    0.000000    0.000000    4.233416
Ne    0.000000    0.000000    0.000000
           2
 Time =    3600.0000000000000     
Ne    0.000000    0.000000    4.233416
Ne    0.000000    0.000000    0.000000
           2
 Time =    3601.0000000000000     
Ne    0.000000    0.000000    4.233416
Ne    0.000000    0.000000    0.000000
           2
 Time =    3602.0000000000000     
Ne    0.000000    0.000000    4.233416
Ne    0.000000    0.000000    0.000000
           2
 Time =    3603.0000000000000     
Ne    0.000000    0.000000    4.233416
Ne    0.000000    0.000000    0.000000
           2
 Time =    3604.0000000000000     
Ne    0.000000    0.000000    4.233416
Ne    0.000000    0.000000    0.000000
           2
 Time =    3605.0000000000000     
Ne    0.000000    0.000000    4.233416
Ne    0.000000    0.000000    0.000000
           2
 Time =    3606.0000000000000     
Ne    0.000000    0.000000    4.233416
Ne    0.000000    0.000000    0.000000
           2
 Time =    3607.0000000000000     
Ne    0.000000    0.000000    4.233416
Ne    0.000000    0.000000    0.000000
           2
 Time =    3608.0000000000000     
Ne    0.000000    0.000000    4.233416
Ne    0.000000    0.000000    0.000000
           2
 Time =    3609.0000000000000     
Ne    0.000000    0.000000    4.233416
Ne    0.000000    0.000000    0.000000
           2
 Time =    3610.0000000000000     
Ne    0.000000    0.000000    4.233416
Ne    0.000000    0.000000    0.000000
           2
 Time =    3611.0000000000000     
Ne    0.000000    0.000000    4.233416
Ne    0.000000    0.000000    0.000000
           2
 Time =    3612.0000000000000     
Ne    0.000000    0.000000    4.233416
Ne    0.000000    0.000000    0.000000
           2
 Time =    3613.0000000000000     
Ne    0.000000    0.000000    4.233416
Ne    0.000000    0.000000    0.000000
           2
 Time =    3614.0000000000000     
Ne    0.000000    0.000000    4.233416
Ne    0.000000    0.000000    0.000000
           2
 Time =    3615.0000000000000     
Ne    0.000000    0.000000    4.233416
Ne    0.000000    0.000000    0.000000
           2
 Time =    3616.0000000000000     
Ne    0.000000    0.000000    4.233416
Ne    0.000000    0.000000    0.000000
           2
 Time =    3617.0000000000000     
Ne    0.000000    0.000000    4.233416
Ne    0.000000    0.000000    0.000000
           2
 Time =    3618.0000000000000     
Ne    0.000000    0.000000    4.233416
Ne    0.000000    0.000000    0.000000
           2
 Time =    3619.0000000000000     
Ne    0.000000    0.000000    4.233416
Ne    0.000000    0.000000    0.000000
           2
 Time =    3620.0000000000000     
Ne    0.000000    0.000000    4.233416
Ne    0.000000    0.000000    0.000000
           2
 Time =    3621.0000000000000     
Ne    0.000000    0.000000    4.233416
Ne    0.000000    0.000000    0.000000
           2
 Time =    3622.0000000000000     
Ne    0.000000    0.000000    4.233416
Ne    0.000000    0.000000    0.000000
           2
 Time =    3623.0000000000000     
Ne    0.000000    0.000000    4.233416
Ne    0.000000    0.000000    0.000000
           2
 Time =    3624.0000000000000     
Ne    0.000000    0.000000    4.233416
Ne    0.000000    0.000000    0.000000
           2
 Time =    3625.0000000000000     
Ne    0.000000    0.000000    4.233416
Ne    0.000000    0.000000    0.000000
           2
 Time =    3626.0000000000000     
Ne    0.000000    0.000000    4.233416
Ne    0.000000    0.000000    0.000000
           2
 Time =    3627.0000000000000     
Ne    0.000000    0.000000    4.233416
Ne    0.000000    0.000000    0.000000
           2
 Time =    3628.0000000000000     
Ne    0.000000    0.000000    4.233416
Ne    0.000000    0.000000    0.000000
           2
 Time =    3629.0000000000000     
Ne    0.000000    0.000000    4.233416
Ne    0.000000    0.000000    0.000000
           2
 Time =    3630.0000000000000     
Ne    0.000000    0.000000    4.233416
Ne    0.000000    0.000000    0.000000
           2
 Time =    3631.0000000000000     
Ne    0.000000    0.000000    4.233416
Ne    0.000000    0.000000    0.000000
           2
 Time =    3632.0000000000000     
Ne    0.000000    0.000000    4.233416
Ne    0.000000    0.000000    0.000000
           2
 Time =    3633.0000000000000     
Ne    0.000000    0.000000    4.233416
Ne    0.000000    0.000000    0.000000
           2
 Time =    3634.0000000000000     
Ne    0.000000    0.000000    4.233416
Ne    0.000000    0.000000    0.000000
           2
 Time =    3635.0000000000000     
Ne    0.000000    0.000000    4.233416
Ne    0.000000    0.000000    0.000000
           2
 Time =    3636.0000000000000     
Ne    0.000000    0.000000    4.233416
Ne    0.000000    0.000000    0.000000
           2
 Time =    3637.0000000000000     
Ne    0.000000    0.000000    4.233416
Ne    0.000000    0.000000    0.000000
           2
 Time =    3638.0000000000000     
Ne    0.000000    0.000000    4.233416
Ne    0.000000    0.000000    0.000000
           2
 Time =    3639.0000000000000     
Ne    0.000000    0.000000    4.233416
Ne    0.000000    0.000000    0.000000
           2
 Time =    3640.0000000000000     
Ne    0.000000    0.000000    4.233416
Ne    0.000000    0.000000    0.000000
           2
 Time =    3641.0000000000000     
Ne    0.000000    0.000000    4.233416
Ne    0.000000    0.000000    0.000000
           2
 Time =    3642.0000000000000     
Ne    0.000000    0.000000    4.233416
Ne    0.000000    0.000000    0.000000
           2
 Time =    3643.0000000000000     
Ne    0.000000    0.000000    4.233416
Ne    0.000000    0.000000    0.000000
           2
 Time =    3644.0000000000000     
Ne    0.000000    0.000000    4.233416
Ne    0.000000    0.000000    0.000000
           2
 Time =    3645.0000000000000     
Ne    0.000000    0.000000    4.233416
Ne    0.000000    0.000000    0.000000
           2
 Time =    3646.0000000000000     
Ne    0.000000    0.000000    4.233416
Ne    0.000000    0.000000    0.000000
           2
 Time =    3647.0000000000000     
Ne    0.000000    0.000000    4.233416
Ne    0.000000    0.000000    0.000000
           2
 Time =    3648.0000000000000     
Ne    0.000000    0.000000    4.233416
Ne    0.000000    0.000000    0.000000
           2
 Time =    3649.0000000000000     
Ne    0.000000    0.000000    4.233416
Ne    0.000000    0.000000    0.000000
           2
 Time =    3650.0000000000000     
Ne    0.000000    0.000000    4.233416
Ne    0.000000    0.000000    0.000000
           2
 Time =    3651.0000000000000     
Ne    0.000000    0.000000    4.233416
Ne    0.000000    0.000000    0.000000
           2
 Time =    3652.0000000000000     
Ne    0.000000    0.000000    4.233416
Ne    0.000000    0.000000    0.000000
           2
 Time =    3653.0000000000000     
Ne    0.000000    0.000000    4.233416
Ne    0.000000    0.000000    0.000000
           2
 Time =    3654.0000000000000     
Ne    0.000000    0.000000    4.233416
Ne    0.000000    0.000000    0.000000
           2
 Time =    3655.0000000000000     
Ne    0.000000    0.000000    4.233416
Ne    0.000000    0.000000    0.000000
           2
 Time =    3656.0000000000000     
Ne    0.000000    0.000000    4.233416
Ne    0.000000    0.000000    0.000000
           2
 Time =    3657.0000000000000     
Ne    0.000000    0.000000    4.233416
Ne    0.000000    0.000000    0.000000
           2
 Time =    3658.0000000000000     
Ne    0.000000    0.000000    4.233416
Ne    0.000000    0.000000    0.000000
           2
 Time =    3659.0000000000000     
Ne    0.000000    0.000000    4.233416
Ne    0.000000    0.000000    0.000000
           2
 Time =    3660.0000000000000     
Ne    0.000000    0.000000    4.233416
Ne    0.000000    0.000000    0.000000
           2
 Time =    3661.0000000000000     
Ne    0.000000    0.000000    4.233416
Ne    0.000000    0.000000    0.000000
           2
 Time =    3662.0000000000000     
Ne    0.000000    0.000000    4.233416
Ne    0.000000    0.000000    0.000000
           2
 Time =    3663.0000000000000     
Ne    0.000000    0.000000    4.233416
Ne    0.000000    0.000000    0.000000
           2
 Time =    3664.0000000000000     
Ne    0.000000    0.000000    4.233416
Ne    0.000000    0.000000    0.000000
           2
 Time =    3665.0000000000000     
Ne    0.000000    0.000000    4.233416
Ne    0.000000    0.000000    0.000000
           2
 Time =    3666.0000000000000     
Ne    0.000000    0.000000    4.233416
Ne    0.000000    0.000000    0.000000
           2
 Time =    3667.0000000000000     
Ne    0.000000    0.000000    4.233416
Ne    0.000000    0.000000    0.000000
           2
 Time =    3668.0000000000000     
Ne    0.000000    0.000000    4.233416
Ne    0.000000    0.000000    0.000000
           2
 Time =    3669.0000000000000     
Ne    0.000000    0.000000    4.233416
Ne    0.000000    0.000000    0.000000
           2
 Time =    3670.0000000000000     
Ne    0.000000    0.000000    4.233416
Ne    0.000000    0.000000    0.000000
           2
 Time =    3671.0000000000000     
Ne    0.000000    0.000000    4.233416
Ne    0.000000    0.000000    0.000000
           2
 Time =    3672.0000000000000     
Ne    0.000000    0.000000    4.233416
Ne    0.000000    0.000000    0.000000
           2
 Time =    3673.0000000000000     
Ne    0.000000    0.000000    4.233416
Ne    0.000000    0.000000    0.000000
           2
 Time =    3674.0000000000000     
Ne    0.000000    0.000000    4.233416
Ne    0.000000    0.000000    0.000000
           2
 Time =    3675.0000000000000     
Ne    0.000000    0.000000    4.233416
Ne    0.000000    0.000000    0.000000
           2
 Time =    3676.0000000000000     
Ne    0.000000    0.000000    4.233416
Ne    0.000000    0.000000    0.000000
           2
 Time =    3677.0000000000000     
Ne    0.000000    0.000000    4.233416
Ne    0.000000    0.000000    0.000000
           2
 Time =    3678.0000000000000     
Ne    0.000000    0.000000    4.233416
Ne    0.000000    0.000000    0.000000
           2
 Time =    3679.0000000000000     
Ne    0.000000    0.000000    4.233416
Ne    0.000000    0.000000    0.000000
           2
 Time =    3680.0000000000000     
Ne    0.000000    0.000000    4.233416
Ne    0.000000    0.000000    0.000000
           2
 Time =    3681.0000000000000     
Ne    0.000000    0.000000    4.233416
Ne    0.000000    0.000000    0.000000
           2
 Time =    3682.0000000000000     
Ne    0.000000    0.000000    4.233416
Ne    0.000000    0.000000    0.000000
           2
 Time =    3683.0000000000000     
Ne    0.000000    0.000000    4.233416
Ne    0.000000    0.000000    0.000000
           2
 Time =    3684.0000000000000     
Ne    0.000000    0.000000    4.233416
Ne    0.000000    0.000000    0.000000
           2
 Time =    3685.0000000000000     
Ne    0.000000    0.000000    4.233416
Ne    0.000000    0.000000    0.000000
           2
 Time =    3686.0000000000000     
Ne    0.000000    0.000000    4.233416
Ne    0.000000    0.000000    0.000000
           2
 Time =    3687.0000000000000     
Ne    0.000000    0.000000    4.233416
Ne    0.000000    0.000000    0.000000
           2
 Time =    3688.0000000000000     
Ne    0.000000    0.000000    4.233416
Ne    0.000000    0.000000    0.000000
           2
 Time =    3689.0000000000000     
Ne    0.000000    0.000000    4.233416
Ne    0.000000    0.000000    0.000000
           2
 Time =    3690.0000000000000     
Ne    0.000000    0.000000    4.233416
Ne    0.000000    0.000000    0.000000
           2
 Time =    3691.0000000000000     
Ne    0.000000    0.000000    4.233416
Ne    0.000000    0.000000    0.000000
           2
 Time =    3692.0000000000000     
Ne    0.000000    0.000000    4.233416
Ne    0.000000    0.000000    0.000000
           2
 Time =    3693.0000000000000     
Ne    0.000000    0.000000    4.233416
Ne    0.000000    0.000000    0.000000
           2
 Time =    3694.0000000000000     
Ne    0.000000    0.000000    4.233416
Ne    0.000000    0.000000    0.000000
           2
 Time =    3695.0000000000000     
Ne    0.000000    0.000000    4.233416
Ne    0.000000    0.000000    0.000000
           2
 Time =    3696.0000000000000     
Ne    0.000000    0.000000    4.233416
Ne    0.000000    0.000000    0.000000
           2
 Time =    3697.0000000000000     
Ne    0.000000    0.000000    4.233416
Ne    0.000000    0.000000    0.000000
           2
 Time =    3698.0000000000000     
Ne    0.000000    0.000000    4.233416
Ne    0.000000    0.000000    0.000000
           2
 Time =    3699.0000000000000     
Ne    0.000000    0.000000    4.233416
Ne    0.000000    0.000000    0.000000
           2
 Time =    3700.0000000000000     
Ne    0.000000    0.000000    4.233416
Ne    0.000000    0.000000    0.000000
           2
 Time =    3701.0000000000000     
Ne    0.000000    0.000000    4.233416
Ne    0.000000    0.000000    0.000000
           2
 Time =    3702.0000000000000     
Ne    0.000000    0.000000    4.233416
Ne    0.000000    0.000000    0.000000
           2
 Time =    3703.0000000000000     
Ne    0.000000    0.000000    4.233416
Ne    0.000000    0.000000    0.000000
           2
 Time =    3704.0000000000000     
Ne    0.000000    0.000000    4.233416
Ne    0.000000    0.000000    0.000000
           2
 Time =    3705.0000000000000     
Ne    0.000000    0.000000    4.233416
Ne    0.000000    0.000000    0.000000
           2
 Time =    3706.0000000000000     
Ne    0.000000    0.000000    4.233416
Ne    0.000000    0.000000    0.000000
           2
 Time =    3707.0000000000000     
Ne    0.000000    0.000000    4.233416
Ne    0.000000    0.000000    0.000000
           2
 Time =    3708.0000000000000     
Ne    0.000000    0.000000    4.233416
Ne    0.000000    0.000000    0.000000
           2
 Time =    3709.0000000000000     
Ne    0.000000    0.000000    4.233416
Ne    0.000000    0.000000    0.000000
           2
 Time =    3710.0000000000000     
Ne    0.000000    0.000000    4.233416
Ne    0.000000    0.000000    0.000000
           2
 Time =    3711.0000000000000     
Ne    0.000000    0.000000    4.233416
Ne    0.000000    0.000000    0.000000
           2
 Time =    3712.0000000000000     
Ne    0.000000    0.000000    4.233416
Ne    0.000000    0.000000    0.000000
           2
 Time =    3713.0000000000000     
Ne    0.000000    0.000000    4.233416
Ne    0.000000    0.000000    0.000000
           2
 Time =    3714.0000000000000     
Ne    0.000000    0.000000    4.233416
Ne    0.000000    0.000000    0.000000
           2
 Time =    3715.0000000000000     
Ne    0.000000    0.000000    4.233416
Ne    0.000000    0.000000    0.000000
           2
 Time =    3716.0000000000000     
Ne    0.000000    0.000000    4.233416
Ne    0.000000    0.000000    0.000000
           2
 Time =    3717.0000000000000     
Ne    0.000000    0.000000    4.233416
Ne    0.000000    0.000000    0.000000
           2
 Time =    3718.0000000000000     
Ne    0.000000    0.000000    4.233416
Ne    0.000000    0.000000    0.000000
           2
 Time =    3719.0000000000000     
Ne    0.000000    0.000000    4.233416
Ne    0.000000    0.000000    0.000000
           2
 Time =    3720.0000000000000     
Ne    0.000000    0.000000    4.233416
Ne    0.000000    0.000000    0.000000
           2
 Time =    3721.0000000000000     
Ne    0.000000    0.000000    4.233416
Ne    0.000000    0.000000    0.000000
           2
 Time =    3722.0000000000000     
Ne    0.000000    0.000000    4.233416
Ne    0.000000    0.000000    0.000000
           2
 Time =    3723.0000000000000     
Ne    0.000000    0.000000    4.233416
Ne    0.000000    0.000000    0.000000
           2
 Time =    3724.0000000000000     
Ne    0.000000    0.000000    4.233416
Ne    0.000000    0.000000    0.000000
           2
 Time =    3725.0000000000000     
Ne    0.000000    0.000000    4.233416
Ne    0.000000    0.000000    0.000000
           2
 Time =    3726.0000000000000     
Ne    0.000000    0.000000    4.233416
Ne    0.000000    0.000000    0.000000
           2
 Time =    3727.0000000000000     
Ne    0.000000    0.000000    4.233416
Ne    0.000000    0.000000    0.000000
           2
 Time =    3728.0000000000000     
Ne    0.000000    0.000000    4.233416
Ne    0.000000    0.000000    0.000000
           2
 Time =    3729.0000000000000     
Ne    0.000000    0.000000    4.233416
Ne    0.000000    0.000000    0.000000
           2
 Time =    3730.0000000000000     
Ne    0.000000    0.000000    4.233416
Ne    0.000000    0.000000    0.000000
           2
 Time =    3731.0000000000000     
Ne    0.000000    0.000000    4.233416
Ne    0.000000    0.000000    0.000000
           2
 Time =    3732.0000000000000     
Ne    0.000000    0.000000    4.233416
Ne    0.000000    0.000000    0.000000
           2
 Time =    3733.0000000000000     
Ne    0.000000    0.000000    4.233416
Ne    0.000000    0.000000    0.000000
           2
 Time =    3734.0000000000000     
Ne    0.000000    0.000000    4.233416
Ne    0.000000    0.000000    0.000000
           2
 Time =    3735.0000000000000     
Ne    0.000000    0.000000    4.233416
Ne    0.000000    0.000000    0.000000
           2
 Time =    3736.0000000000000     
Ne    0.000000    0.000000    4.233416
Ne    0.000000    0.000000    0.000000
           2
 Time =    3737.0000000000000     
Ne    0.000000    0.000000    4.233416
Ne    0.000000    0.000000    0.000000
           2
 Time =    3738.0000000000000     
Ne    0.000000    0.000000    4.233416
Ne    0.000000    0.000000    0.000000
           2
 Time =    3739.0000000000000     
Ne    0.000000    0.000000    4.233416
Ne    0.000000    0.000000    0.000000
           2
 Time =    3740.0000000000000     
Ne    0.000000    0.000000    4.233416
Ne    0.000000    0.000000    0.000000
           2
 Time =    3741.0000000000000     
Ne    0.000000    0.000000    4.233416
Ne    0.000000    0.000000    0.000000
           2
 Time =    3742.0000000000000     
Ne    0.000000    0.000000    4.233416
Ne    0.000000    0.000000    0.000000
           2
 Time =    3743.0000000000000     
Ne    0.000000    0.000000    4.233416
Ne    0.000000    0.000000    0.000000
           2
 Time =    3744.0000000000000     
Ne    0.000000    0.000000    4.233416
Ne    0.000000    0.000000    0.000000
           2
 Time =    3745.0000000000000     
Ne    0.000000    0.000000    4.233416
Ne    0.000000    0.000000    0.000000
           2
 Time =    3746.0000000000000     
Ne    0.000000    0.000000    4.233416
Ne    0.000000    0.000000    0.000000
           2
 Time =    3747.0000000000000     
Ne    0.000000    0.000000    4.233416
Ne    0.000000    0.000000    0.000000
           2
 Time =    3748.0000000000000     
Ne    0.000000    0.000000    4.233416
Ne    0.000000    0.000000    0.000000
           2
 Time =    3749.0000000000000     
Ne    0.000000    0.000000    4.233416
Ne    0.000000    0.000000    0.000000
           2
 Time =    3750.0000000000000     
Ne    0.000000    0.000000    4.233416
Ne    0.000000    0.000000    0.000000
           2
 Time =    3751.0000000000000     
Ne    0.000000    0.000000    4.233416
Ne    0.000000    0.000000    0.000000
           2
 Time =    3752.0000000000000     
Ne    0.000000    0.000000    4.233416
Ne    0.000000    0.000000    0.000000
           2
 Time =    3753.0000000000000     
Ne    0.000000    0.000000    4.233416
Ne    0.000000    0.000000    0.000000
           2
 Time =    3754.0000000000000     
Ne    0.000000    0.000000    4.233416
Ne    0.000000    0.000000    0.000000
           2
 Time =    3755.0000000000000     
Ne    0.000000    0.000000    4.233416
Ne    0.000000    0.000000    0.000000
           2
 Time =    3756.0000000000000     
Ne    0.000000    0.000000    4.233416
Ne    0.000000    0.000000    0.000000
           2
 Time =    3757.0000000000000     
Ne    0.000000    0.000000    4.233416
Ne    0.000000    0.000000    0.000000
           2
 Time =    3758.0000000000000     
Ne    0.000000    0.000000    4.233416
Ne    0.000000    0.000000    0.000000
           2
 Time =    3759.0000000000000     
Ne    0.000000    0.000000    4.233416
Ne    0.000000    0.000000    0.000000
           2
 Time =    3760.0000000000000     
Ne    0.000000    0.000000    4.233416
Ne    0.000000    0.000000    0.000000
           2
 Time =    3761.0000000000000     
Ne    0.000000    0.000000    4.233416
Ne    0.000000    0.000000    0.000000
           2
 Time =    3762.0000000000000     
Ne    0.000000    0.000000    4.233416
Ne    0.000000    0.000000    0.000000
           2
 Time =    3763.0000000000000     
Ne    0.000000    0.000000    4.233416
Ne    0.000000    0.000000    0.000000
           2
 Time =    3764.0000000000000     
Ne    0.000000    0.000000    4.233416
Ne    0.000000    0.000000    0.000000
           2
 Time =    3765.0000000000000     
Ne    0.000000    0.000000    4.233416
Ne    0.000000    0.000000    0.000000
           2
 Time =    3766.0000000000000     
Ne    0.000000    0.000000    4.233416
Ne    0.000000    0.000000    0.000000
           2
 Time =    3767.0000000000000     
Ne    0.000000    0.000000    4.233416
Ne    0.000000    0.000000    0.000000
           2
 Time =    3768.0000000000000     
Ne    0.000000    0.000000    4.233416
Ne    0.000000    0.000000    0.000000
           2
 Time =    3769.0000000000000     
Ne    0.000000    0.000000    4.233416
Ne    0.000000    0.000000    0.000000
           2
 Time =    3770.0000000000000     
Ne    0.000000    0.000000    4.233416
Ne    0.000000    0.000000    0.000000
           2
 Time =    3771.0000000000000     
Ne    0.000000    0.000000    4.233416
Ne    0.000000    0.000000    0.000000
           2
 Time =    3772.0000000000000     
Ne    0.000000    0.000000    4.233416
Ne    0.000000    0.000000    0.000000
           2
 Time =    3773.0000000000000     
Ne    0.000000    0.000000    4.233416
Ne    0.000000    0.000000    0.000000
           2
 Time =    3774.0000000000000     
Ne    0.000000    0.000000    4.233416
Ne    0.000000    0.000000    0.000000
           2
 Time =    3775.0000000000000     
Ne    0.000000    0.000000    4.233416
Ne    0.000000    0.000000    0.000000
           2
 Time =    3776.0000000000000     
Ne    0.000000    0.000000    4.233416
Ne    0.000000    0.000000    0.000000
           2
 Time =    3777.0000000000000     
Ne    0.000000    0.000000    4.233416
Ne    0.000000    0.000000    0.000000
           2
 Time =    3778.0000000000000     
Ne    0.000000    0.000000    4.233416
Ne    0.000000    0.000000    0.000000
           2
 Time =    3779.0000000000000     
Ne    0.000000    0.000000    4.233416
Ne    0.000000    0.000000    0.000000
           2
 Time =    3780.0000000000000     
Ne    0.000000    0.000000    4.233416
Ne    0.000000    0.000000    0.000000
           2
 Time =    3781.0000000000000     
Ne    0.000000    0.000000    4.233416
Ne    0.000000    0.000000    0.000000
           2
 Time =    3782.0000000000000     
Ne    0.000000    0.000000    4.233416
Ne    0.000000    0.000000    0.000000
           2
 Time =    3783.0000000000000     
Ne    0.000000    0.000000    4.233416
Ne    0.000000    0.000000    0.000000
           2
 Time =    3784.0000000000000     
Ne    0.000000    0.000000    4.233416
Ne    0.000000    0.000000    0.000000
           2
 Time =    3785.0000000000000     
Ne    0.000000    0.000000    4.233416
Ne    0.000000    0.000000    0.000000
           2
 Time =    3786.0000000000000     
Ne    0.000000    0.000000    4.233416
Ne    0.000000    0.000000    0.000000
           2
 Time =    3787.0000000000000     
Ne    0.000000    0.000000    4.233416
Ne    0.000000    0.000000    0.000000
           2
 Time =    3788.0000000000000     
Ne    0.000000    0.000000    4.233416
Ne    0.000000    0.000000    0.000000
           2
 Time =    3789.0000000000000     
Ne    0.000000    0.000000    4.233416
Ne    0.000000    0.000000    0.000000
           2
 Time =    3790.0000000000000     
Ne    0.000000    0.000000    4.233416
Ne    0.000000    0.000000    0.000000
           2
 Time =    3791.0000000000000     
Ne    0.000000    0.000000    4.233416
Ne    0.000000    0.000000    0.000000
           2
 Time =    3792.0000000000000     
Ne    0.000000    0.000000    4.233416
Ne    0.000000    0.000000    0.000000
           2
 Time =    3793.0000000000000     
Ne    0.000000    0.000000    4.233416
Ne    0.000000    0.000000    0.000000
           2
 Time =    3794.0000000000000     
Ne    0.000000    0.000000    4.233416
Ne    0.000000    0.000000    0.000000
           2
 Time =    3795.0000000000000     
Ne    0.000000    0.000000    4.233416
Ne    0.000000    0.000000    0.000000
           2
 Time =    3796.0000000000000     
Ne    0.000000    0.000000    4.233416
Ne    0.000000    0.000000    0.000000
           2
 Time =    3797.0000000000000     
Ne    0.000000    0.000000    4.233416
Ne    0.000000    0.000000    0.000000
           2
 Time =    3798.0000000000000     
Ne    0.000000    0.000000    4.233416
Ne    0.000000    0.000000    0.000000
           2
 Time =    3799.0000000000000     
Ne    0.000000    0.000000    4.233416
Ne    0.000000    0.000000    0.000000
           2
 Time =    3800.0000000000000     
Ne    0.000000    0.000000    4.233416
Ne    0.000000    0.000000    0.000000
           2
 Time =    3801.0000000000000     
Ne    0.000000    0.000000    4.233416
Ne    0.000000    0.000000    0.000000
           2
 Time =    3802.0000000000000     
Ne    0.000000    0.000000    4.233416
Ne    0.000000    0.000000    0.000000
           2
 Time =    3803.0000000000000     
Ne    0.000000    0.000000    4.233416
Ne    0.000000    0.000000    0.000000
           2
 Time =    3804.0000000000000     
Ne    0.000000    0.000000    4.233416
Ne    0.000000    0.000000    0.000000
           2
 Time =    3805.0000000000000     
Ne    0.000000    0.000000    4.233416
Ne    0.000000    0.000000    0.000000
           2
 Time =    3806.0000000000000     
Ne    0.000000    0.000000    4.233416
Ne    0.000000    0.000000    0.000000
           2
 Time =    3807.0000000000000     
Ne    0.000000    0.000000    4.233416
Ne    0.000000    0.000000    0.000000
           2
 Time =    3808.0000000000000     
Ne    0.000000    0.000000    4.233416
Ne    0.000000    0.000000    0.000000
           2
 Time =    3809.0000000000000     
Ne    0.000000    0.000000    4.233416
Ne    0.000000    0.000000    0.000000
           2
 Time =    3810.0000000000000     
Ne    0.000000    0.000000    4.233416
Ne    0.000000    0.000000    0.000000
           2
 Time =    3811.0000000000000     
Ne    0.000000    0.000000    4.233416
Ne    0.000000    0.000000    0.000000
           2
 Time =    3812.0000000000000     
Ne    0.000000    0.000000    4.233416
Ne    0.000000    0.000000    0.000000
           2
 Time =    3813.0000000000000     
Ne    0.000000    0.000000    4.233416
Ne    0.000000    0.000000    0.000000
           2
 Time =    3814.0000000000000     
Ne    0.000000    0.000000    4.233416
Ne    0.000000    0.000000    0.000000
           2
 Time =    3815.0000000000000     
Ne    0.000000    0.000000    4.233416
Ne    0.000000    0.000000    0.000000
           2
 Time =    3816.0000000000000     
Ne    0.000000    0.000000    4.233416
Ne    0.000000    0.000000    0.000000
           2
 Time =    3817.0000000000000     
Ne    0.000000    0.000000    4.233416
Ne    0.000000    0.000000    0.000000
           2
 Time =    3818.0000000000000     
Ne    0.000000    0.000000    4.233416
Ne    0.000000    0.000000    0.000000
           2
 Time =    3819.0000000000000     
Ne    0.000000    0.000000    4.233416
Ne    0.000000    0.000000    0.000000
           2
 Time =    3820.0000000000000     
Ne    0.000000    0.000000    4.233416
Ne    0.000000    0.000000    0.000000
           2
 Time =    3821.0000000000000     
Ne    0.000000    0.000000    4.233416
Ne    0.000000    0.000000    0.000000
           2
 Time =    3822.0000000000000     
Ne    0.000000    0.000000    4.233416
Ne    0.000000    0.000000    0.000000
           2
 Time =    3823.0000000000000     
Ne    0.000000    0.000000    4.233416
Ne    0.000000    0.000000    0.000000
           2
 Time =    3824.0000000000000     
Ne    0.000000    0.000000    4.233416
Ne    0.000000    0.000000    0.000000
           2
 Time =    3825.0000000000000     
Ne    0.000000    0.000000    4.233416
Ne    0.000000    0.000000    0.000000
           2
 Time =    3826.0000000000000     
Ne    0.000000    0.000000    4.233416
Ne    0.000000    0.000000    0.000000
           2
 Time =    3827.0000000000000     
Ne    0.000000    0.000000    4.233416
Ne    0.000000    0.000000    0.000000
           2
 Time =    3828.0000000000000     
Ne    0.000000    0.000000    4.233416
Ne    0.000000    0.000000    0.000000
           2
 Time =    3829.0000000000000     
Ne    0.000000    0.000000    4.233416
Ne    0.000000    0.000000    0.000000
           2
 Time =    3830.0000000000000     
Ne    0.000000    0.000000    4.233416
Ne    0.000000    0.000000    0.000000
           2
 Time =    3831.0000000000000     
Ne    0.000000    0.000000    4.233416
Ne    0.000000    0.000000    0.000000
           2
 Time =    3832.0000000000000     
Ne    0.000000    0.000000    4.233416
Ne    0.000000    0.000000    0.000000
           2
 Time =    3833.0000000000000     
Ne    0.000000    0.000000    4.233416
Ne    0.000000    0.000000    0.000000
           2
 Time =    3834.0000000000000     
Ne    0.000000    0.000000    4.233416
Ne    0.000000    0.000000    0.000000
           2
 Time =    3835.0000000000000     
Ne    0.000000    0.000000    4.233416
Ne    0.000000    0.000000    0.000000
           2
 Time =    3836.0000000000000     
Ne    0.000000    0.000000    4.233416
Ne    0.000000    0.000000    0.000000
           2
 Time =    3837.0000000000000     
Ne    0.000000    0.000000    4.233416
Ne    0.000000    0.000000    0.000000
           2
 Time =    3838.0000000000000     
Ne    0.000000    0.000000    4.233416
Ne    0.000000    0.000000    0.000000
           2
 Time =    3839.0000000000000     
Ne    0.000000    0.000000    4.233416
Ne    0.000000    0.000000    0.000000
           2
 Time =    3840.0000000000000     
Ne    0.000000    0.000000    4.233416
Ne    0.000000    0.000000    0.000000
           2
 Time =    3841.0000000000000     
Ne    0.000000    0.000000    4.233416
Ne    0.000000    0.000000    0.000000
           2
 Time =    3842.0000000000000     
Ne    0.000000    0.000000    4.233416
Ne    0.000000    0.000000    0.000000
           2
 Time =    3843.0000000000000     
Ne    0.000000    0.000000    4.233416
Ne    0.000000    0.000000    0.000000
           2
 Time =    3844.0000000000000     
Ne    0.000000    0.000000    4.233416
Ne    0.000000    0.000000    0.000000
           2
 Time =    3845.0000000000000     
Ne    0.000000    0.000000    4.233416
Ne    0.000000    0.000000    0.000000
           2
 Time =    3846.0000000000000     
Ne    0.000000    0.000000    4.233416
Ne    0.000000    0.000000    0.000000
           2
 Time =    3847.0000000000000     
Ne    0.000000    0.000000    4.233416
Ne    0.000000    0.000000    0.000000
           2
 Time =    3848.0000000000000     
Ne    0.000000    0.000000    4.233416
Ne    0.000000    0.000000    0.000000
           2
 Time =    3849.0000000000000     
Ne    0.000000    0.000000    4.233416
Ne    0.000000    0.000000    0.000000
           2
 Time =    3850.0000000000000     
Ne    0.000000    0.000000    4.233416
Ne    0.000000    0.000000    0.000000
           2
 Time =    3851.0000000000000     
Ne    0.000000    0.000000    4.233416
Ne    0.000000    0.000000    0.000000
           2
 Time =    3852.0000000000000     
Ne    0.000000    0.000000    4.233416
Ne    0.000000    0.000000    0.000000
           2
 Time =    3853.0000000000000     
Ne    0.000000    0.000000    4.233416
Ne    0.000000    0.000000    0.000000
           2
 Time =    3854.0000000000000     
Ne    0.000000    0.000000    4.233416
Ne    0.000000    0.000000    0.000000
           2
 Time =    3855.0000000000000     
Ne    0.000000    0.000000    4.233416
Ne    0.000000    0.000000    0.000000
           2
 Time =    3856.0000000000000     
Ne    0.000000    0.000000    4.233416
Ne    0.000000    0.000000    0.000000
           2
 Time =    3857.0000000000000     
Ne    0.000000    0.000000    4.233416
Ne    0.000000    0.000000    0.000000
           2
 Time =    3858.0000000000000     
Ne    0.000000    0.000000    4.233416
Ne    0.000000    0.000000    0.000000
           2
 Time =    3859.0000000000000     
Ne    0.000000    0.000000    4.233416
Ne    0.000000    0.000000    0.000000
           2
 Time =    3860.0000000000000     
Ne    0.000000    0.000000    4.233416
Ne    0.000000    0.000000    0.000000
           2
 Time =    3861.0000000000000     
Ne    0.000000    0.000000    4.233416
Ne    0.000000    0.000000    0.000000
           2
 Time =    3862.0000000000000     
Ne    0.000000    0.000000    4.233416
Ne    0.000000    0.000000    0.000000
           2
 Time =    3863.0000000000000     
Ne    0.000000    0.000000    4.233416
Ne    0.000000    0.000000    0.000000
           2
 Time =    3864.0000000000000     
Ne    0.000000    0.000000    4.233416
Ne    0.000000    0.000000    0.000000
           2
 Time =    3865.0000000000000     
Ne    0.000000    0.000000    4.233416
Ne    0.000000    0.000000    0.000000
           2
 Time =    3866.0000000000000     
Ne    0.000000    0.000000    4.233416
Ne    0.000000    0.000000    0.000000
           2
 Time =    3867.0000000000000     
Ne    0.000000    0.000000    4.233416
Ne    0.000000    0.000000    0.000000
           2
 Time =    3868.0000000000000     
Ne    0.000000    0.000000    4.233416
Ne    0.000000    0.000000    0.000000
           2
 Time =    3869.0000000000000     
Ne    0.000000    0.000000    4.233416
Ne    0.000000    0.000000    0.000000
           2
 Time =    3870.0000000000000     
Ne    0.000000    0.000000    4.233416
Ne    0.000000    0.000000    0.000000
           2
 Time =    3871.0000000000000     
Ne    0.000000    0.000000    4.233416
Ne    0.000000    0.000000    0.000000
           2
 Time =    3872.0000000000000     
Ne    0.000000    0.000000    4.233416
Ne    0.000000    0.000000    0.000000
           2
 Time =    3873.0000000000000     
Ne    0.000000    0.000000    4.233416
Ne    0.000000    0.000000    0.000000
           2
 Time =    3874.0000000000000     
Ne    0.000000    0.000000    4.233416
Ne    0.000000    0.000000    0.000000
           2
 Time =    3875.0000000000000     
Ne    0.000000    0.000000    4.233416
Ne    0.000000    0.000000    0.000000
           2
 Time =    3876.0000000000000     
Ne    0.000000    0.000000    4.233416
Ne    0.000000    0.000000    0.000000
           2
 Time =    3877.0000000000000     
Ne    0.000000    0.000000    4.233416
Ne    0.000000    0.000000    0.000000
           2
 Time =    3878.0000000000000     
Ne    0.000000    0.000000    4.233416
Ne    0.000000    0.000000    0.000000
           2
 Time =    3879.0000000000000     
Ne    0.000000    0.000000    4.233416
Ne    0.000000    0.000000    0.000000
           2
 Time =    3880.0000000000000     
Ne    0.000000    0.000000    4.233416
Ne    0.000000    0.000000    0.000000
           2
 Time =    3881.0000000000000     
Ne    0.000000    0.000000    4.233416
Ne    0.000000    0.000000    0.000000
           2
 Time =    3882.0000000000000     
Ne    0.000000    0.000000    4.233416
Ne    0.000000    0.000000    0.000000
           2
 Time =    3883.0000000000000     
Ne    0.000000    0.000000    4.233416
Ne    0.000000    0.000000    0.000000
           2
 Time =    3884.0000000000000     
Ne    0.000000    0.000000    4.233416
Ne    0.000000    0.000000    0.000000
           2
 Time =    3885.0000000000000     
Ne    0.000000    0.000000    4.233416
Ne    0.000000    0.000000    0.000000
           2
 Time =    3886.0000000000000     
Ne    0.000000    0.000000    4.233416
Ne    0.000000    0.000000    0.000000
           2
 Time =    3887.0000000000000     
Ne    0.000000    0.000000    4.233416
Ne    0.000000    0.000000    0.000000
           2
 Time =    3888.0000000000000     
Ne    0.000000    0.000000    4.233416
Ne    0.000000    0.000000    0.000000
           2
 Time =    3889.0000000000000     
Ne    0.000000    0.000000    4.233416
Ne    0.000000    0.000000    0.000000
           2
 Time =    3890.0000000000000     
Ne    0.000000    0.000000    4.233416
Ne    0.000000    0.000000    0.000000
           2
 Time =    3891.0000000000000     
Ne    0.000000    0.000000    4.233416
Ne    0.000000    0.000000    0.000000
           2
 Time =    3892.0000000000000     
Ne    0.000000    0.000000    4.233416
Ne    0.000000    0.000000    0.000000
           2
 Time =    3893.0000000000000     
Ne    0.000000    0.000000    4.233416
Ne    0.000000    0.000000    0.000000
           2
 Time =    3894.0000000000000     
Ne    0.000000    0.000000    4.233416
Ne    0.000000    0.000000    0.000000
           2
 Time =    3895.0000000000000     
Ne    0.000000    0.000000    4.233416
Ne    0.000000    0.000000    0.000000
           2
 Time =    3896.0000000000000     
Ne    0.000000    0.000000    4.233416
Ne    0.000000    0.000000    0.000000
           2
 Time =    3897.0000000000000     
Ne    0.000000    0.000000    4.233416
Ne    0.000000    0.000000    0.000000
           2
 Time =    3898.0000000000000     
Ne    0.000000    0.000000    4.233416
Ne    0.000000    0.000000    0.000000
           2
 Time =    3899.0000000000000     
Ne    0.000000    0.000000    4.233416
Ne    0.000000    0.000000    0.000000
           2
 Time =    3900.0000000000000     
Ne    0.000000    0.000000    4.233416
Ne    0.000000    0.000000    0.000000
           2
 Time =    3901.0000000000000     
Ne    0.000000    0.000000    4.233416
Ne    0.000000    0.000000    0.000000
           2
 Time =    3902.0000000000000     
Ne    0.000000    0.000000    4.233416
Ne    0.000000    0.000000    0.000000
           2
 Time =    3903.0000000000000     
Ne    0.000000    0.000000    4.233416
Ne    0.000000    0.000000    0.000000
           2
 Time =    3904.0000000000000     
Ne    0.000000    0.000000    4.233416
Ne    0.000000    0.000000    0.000000
           2
 Time =    3905.0000000000000     
Ne    0.000000    0.000000    4.233416
Ne    0.000000    0.000000    0.000000
           2
 Time =    3906.0000000000000     
Ne    0.000000    0.000000    4.233416
Ne    0.000000    0.000000    0.000000
           2
 Time =    3907.0000000000000     
Ne    0.000000    0.000000    4.233416
Ne    0.000000    0.000000    0.000000
           2
 Time =    3908.0000000000000     
Ne    0.000000    0.000000    4.233416
Ne    0.000000    0.000000    0.000000
           2
 Time =    3909.0000000000000     
Ne    0.000000    0.000000    4.233416
Ne    0.000000    0.000000    0.000000
           2
 Time =    3910.0000000000000     
Ne    0.000000    0.000000    4.233416
Ne    0.000000    0.000000    0.000000
           2
 Time =    3911.0000000000000     
Ne    0.000000    0.000000    4.233416
Ne    0.000000    0.000000    0.000000
           2
 Time =    3912.0000000000000     
Ne    0.000000    0.000000    4.233416
Ne    0.000000    0.000000    0.000000
           2
 Time =    3913.0000000000000     
Ne    0.000000    0.000000    4.233416
Ne    0.000000    0.000000    0.000000
           2
 Time =    3914.0000000000000     
Ne    0.000000    0.000000    4.233416
Ne    0.000000    0.000000    0.000000
           2
 Time =    3915.0000000000000     
Ne    0.000000    0.000000    4.233416
Ne    0.000000    0.000000    0.000000
           2
 Time =    3916.0000000000000     
Ne    0.000000    0.000000    4.233416
Ne    0.000000    0.000000    0.000000
           2
 Time =    3917.0000000000000     
Ne    0.000000    0.000000    4.233416
Ne    0.000000    0.000000    0.000000
           2
 Time =    3918.0000000000000     
Ne    0.000000    0.000000    4.233416
Ne    0.000000    0.000000    0.000000
           2
 Time =    3919.0000000000000     
Ne    0.000000    0.000000    4.233416
Ne    0.000000    0.000000    0.000000
           2
 Time =    3920.0000000000000     
Ne    0.000000    0.000000    4.233416
Ne    0.000000    0.000000    0.000000
           2
 Time =    3921.0000000000000     
Ne    0.000000    0.000000    4.233416
Ne    0.000000    0.000000    0.000000
           2
 Time =    3922.0000000000000     
Ne    0.000000    0.000000    4.233416
Ne    0.000000    0.000000    0.000000
           2
 Time =    3923.0000000000000     
Ne    0.000000    0.000000    4.233416
Ne    0.000000    0.000000    0.000000
           2
 Time =    3924.0000000000000     
Ne    0.000000    0.000000    4.233416
Ne    0.000000    0.000000    0.000000
           2
 Time =    3925.0000000000000     
Ne    0.000000    0.000000    4.233416
Ne    0.000000    0.000000    0.000000
           2
 Time =    3926.0000000000000     
Ne    0.000000    0.000000    4.233416
Ne    0.000000    0.000000    0.000000
           2
 Time =    3927.0000000000000     
Ne    0.000000    0.000000    4.233416
Ne    0.000000    0.000000    0.000000
           2
 Time =    3928.0000000000000     
Ne    0.000000    0.000000    4.233416
Ne    0.000000    0.000000    0.000000
           2
 Time =    3929.0000000000000     
Ne    0.000000    0.000000    4.233416
Ne    0.000000    0.000000    0.000000
           2
 Time =    3930.0000000000000     
Ne    0.000000    0.000000    4.233416
Ne    0.000000    0.000000    0.000000
           2
 Time =    3931.0000000000000     
Ne    0.000000    0.000000    4.233416
Ne    0.000000    0.000000    0.000000
           2
 Time =    3932.0000000000000     
Ne    0.000000    0.000000    4.233416
Ne    0.000000    0.000000    0.000000
           2
 Time =    3933.0000000000000     
Ne    0.000000    0.000000    4.233416
Ne    0.000000    0.000000    0.000000
           2
 Time =    3934.0000000000000     
Ne    0.000000    0.000000    4.233416
Ne    0.000000    0.000000    0.000000
           2
 Time =    3935.0000000000000     
Ne    0.000000    0.000000    4.233416
Ne    0.000000    0.000000    0.000000
           2
 Time =    3936.0000000000000     
Ne    0.000000    0.000000    4.233416
Ne    0.000000    0.000000    0.000000
           2
 Time =    3937.0000000000000     
Ne    0.000000    0.000000    4.233416
Ne    0.000000    0.000000    0.000000
           2
 Time =    3938.0000000000000     
Ne    0.000000    0.000000    4.233416
Ne    0.000000    0.000000    0.000000
           2
 Time =    3939.0000000000000     
Ne    0.000000    0.000000    4.233416
Ne    0.000000    0.000000    0.000000
           2
 Time =    3940.0000000000000     
Ne    0.000000    0.000000    4.233416
Ne    0.000000    0.000000    0.000000
           2
 Time =    3941.0000000000000     
Ne    0.000000    0.000000    4.233416
Ne    0.000000    0.000000    0.000000
           2
 Time =    3942.0000000000000     
Ne    0.000000    0.000000    4.233416
Ne    0.000000    0.000000    0.000000
           2
 Time =    3943.0000000000000     
Ne    0.000000    0.000000    4.233416
Ne    0.000000    0.000000    0.000000
           2
 Time =    3944.0000000000000     
Ne    0.000000    0.000000    4.233416
Ne    0.000000    0.000000    0.000000
           2
 Time =    3945.0000000000000     
Ne    0.000000    0.000000    4.233416
Ne    0.000000    0.000000    0.000000
           2
 Time =    3946.0000000000000     
Ne    0.000000    0.000000    4.233416
Ne    0.000000    0.000000    0.000000
           2
 Time =    3947.0000000000000     
Ne    0.000000    0.000000    4.233416
Ne    0.000000    0.000000    0.000000
           2
 Time =    3948.0000000000000     
Ne    0.000000    0.000000    4.233416
Ne    0.000000    0.000000    0.000000
           2
 Time =    3949.0000000000000     
Ne    0.000000    0.000000    4.233416
Ne    0.000000    0.000000    0.000000
           2
 Time =    3950.0000000000000     
Ne    0.000000    0.000000    4.233416
Ne    0.000000    0.000000    0.000000
           2
 Time =    3951.0000000000000     
Ne    0.000000    0.000000    4.233416
Ne    0.000000    0.000000    0.000000
           2
 Time =    3952.0000000000000     
Ne    0.000000    0.000000    4.233416
Ne    0.000000    0.000000    0.000000
           2
 Time =    3953.0000000000000     
Ne    0.000000    0.000000    4.233416
Ne    0.000000    0.000000    0.000000
           2
 Time =    3954.0000000000000     
Ne    0.000000    0.000000    4.233416
Ne    0.000000    0.000000    0.000000
           2
 Time =    3955.0000000000000     
Ne    0.000000    0.000000    4.233416
Ne    0.000000    0.000000    0.000000
           2
 Time =    3956.0000000000000     
Ne    0.000000    0.000000    4.233416
Ne    0.000000    0.000000    0.000000
           2
 Time =    3957.0000000000000     
Ne    0.000000    0.000000    4.233416
Ne    0.000000    0.000000    0.000000
           2
 Time =    3958.0000000000000     
Ne    0.000000    0.000000    4.233416
Ne    0.000000    0.000000    0.000000
           2
 Time =    3959.0000000000000     
Ne    0.000000    0.000000    4.233416
Ne    0.000000    0.000000    0.000000
           2
 Time =    3960.0000000000000     
Ne    0.000000    0.000000    4.233416
Ne    0.000000    0.000000    0.000000
           2
 Time =    3961.0000000000000     
Ne    0.000000    0.000000    4.233416
Ne    0.000000    0.000000    0.000000
           2
 Time =    3962.0000000000000     
Ne    0.000000    0.000000    4.233416
Ne    0.000000    0.000000    0.000000
           2
 Time =    3963.0000000000000     
Ne    0.000000    0.000000    4.233416
Ne    0.000000    0.000000    0.000000
           2
 Time =    3964.0000000000000     
Ne    0.000000    0.000000    4.233416
Ne    0.000000    0.000000    0.000000
           2
 Time =    3965.0000000000000     
Ne    0.000000    0.000000    4.233416
Ne    0.000000    0.000000    0.000000
           2
 Time =    3966.0000000000000     
Ne    0.000000    0.000000    4.233416
Ne    0.000000    0.000000    0.000000
           2
 Time =    3967.0000000000000     
Ne    0.000000    0.000000    4.233416
Ne    0.000000    0.000000    0.000000
           2
 Time =    3968.0000000000000     
Ne    0.000000    0.000000    4.233416
Ne    0.000000    0.000000    0.000000
           2
 Time =    3969.0000000000000     
Ne    0.000000    0.000000    4.233416
Ne    0.000000    0.000000    0.000000
           2
 Time =    3970.0000000000000     
Ne    0.000000    0.000000    4.233416
Ne    0.000000    0.000000    0.000000
           2
 Time =    3971.0000000000000     
Ne    0.000000    0.000000    4.233416
Ne    0.000000    0.000000    0.000000
           2
 Time =    3972.0000000000000     
Ne    0.000000    0.000000    4.233416
Ne    0.000000    0.000000    0.000000
           2
 Time =    3973.0000000000000     
Ne    0.000000    0.000000    4.233416
Ne    0.000000    0.000000    0.000000
           2
 Time =    3974.0000000000000     
Ne    0.000000    0.000000    4.233416
Ne    0.000000    0.000000    0.000000
           2
 Time =    3975.0000000000000     
Ne    0.000000    0.000000    4.233416
Ne    0.000000    0.000000    0.000000
           2
 Time =    3976.0000000000000     
Ne    0.000000    0.000000    4.233416
Ne    0.000000    0.000000    0.000000
           2
 Time =    3977.0000000000000     
Ne    0.000000    0.000000    4.233416
Ne    0.000000    0.000000    0.000000
           2
 Time =    3978.0000000000000     
Ne    0.000000    0.000000    4.233416
Ne    0.000000    0.000000    0.000000
           2
 Time =    3979.0000000000000     
Ne    0.000000    0.000000    4.233416
Ne    0.000000    0.000000    0.000000
           2
 Time =    3980.0000000000000     
Ne    0.000000    0.000000    4.233416
Ne    0.000000    0.000000    0.000000
           2
 Time =    3981.0000000000000     
Ne    0.000000    0.000000    4.233416
Ne    0.000000    0.000000    0.000000
           2
 Time =    3982.0000000000000     
Ne    0.000000    0.000000    4.233416
Ne    0.000000    0.000000    0.000000
           2
 Time =    3983.0000000000000     
Ne    0.000000    0.000000    4.233416
Ne    0.000000    0.000000    0.000000
           2
 Time =    3984.0000000000000     
Ne    0.000000    0.000000    4.233416
Ne    0.000000    0.000000    0.000000
           2
 Time =    3985.0000000000000     
Ne    0.000000    0.000000    4.233416
Ne    0.000000    0.000000    0.000000
           2
 Time =    3986.0000000000000     
Ne    0.000000    0.000000    4.233416
Ne    0.000000    0.000000    0.000000
           2
 Time =    3987.0000000000000     
Ne    0.000000    0.000000    4.233416
Ne    0.000000    0.000000    0.000000
           2
 Time =    3988.0000000000000     
Ne    0.000000    0.000000    4.233416
Ne    0.000000    0.000000    0.000000
           2
 Time =    3989.0000000000000     
Ne    0.000000    0.000000    4.233416
Ne    0.000000    0.000000    0.000000
           2
 Time =    3990.0000000000000     
Ne    0.000000    0.000000    4.233416
Ne    0.000000    0.000000    0.000000
           2
 Time =    3991.0000000000000     
Ne    0.000000    0.000000    4.233416
Ne    0.000000    0.000000    0.000000
           2
 Time =    3992.0000000000000     
Ne    0.000000    0.000000    4.233416
Ne    0.000000    0.000000    0.000000
           2
 Time =    3993.0000000000000     
Ne    0.000000    0.000000    4.233416
Ne    0.000000    0.000000    0.000000
           2
 Time =    3994.0000000000000     
Ne    0.000000    0.000000    4.233416
Ne    0.000000    0.000000    0.000000
           2
 Time =    3995.0000000000000     
Ne    0.000000    0.000000    4.233416
Ne    0.000000    0.000000    0.000000
           2
 Time =    3996.0000000000000     
Ne    0.000000    0.000000    4.233416
Ne    0.000000    0.000000    0.000000
           2
 Time =    3997.0000000000000     
Ne    0.000000    0.000000    4.233416
Ne    0.000000    0.000000    0.000000
           2
 Time =    3998.0000000000000     
Ne    0.000000    0.000000    4.233416
Ne    0.000000    0.000000    0.000000
           2
 Time =    3999.0000000000000     
Ne    0.000000    0.000000    4.233416
Ne    0.000000    0.000000    0.000000
           2
 Time =    4000.0000000000000     
Ne    0.000000    0.000000    4.233416
Ne    0.000000    0.000000    0.000000
           2
 Time =    4001.0000000000000     
Ne    0.000000    0.000000    4.233416
Ne    0.000000    0.000000    0.000000
           2
 Time =    4002.0000000000000     
Ne    0.000000    0.000000    4.233416
Ne    0.000000    0.000000    0.000000
           2
 Time =    4003.0000000000000     
Ne    0.000000    0.000000    4.233416
Ne    0.000000    0.000000    0.000000
           2
 Time =    4004.0000000000000     
Ne    0.000000    0.000000    4.233416
Ne    0.000000    0.000000    0.000000
           2
 Time =    4005.0000000000000     
Ne    0.000000    0.000000    4.233416
Ne    0.000000    0.000000    0.000000
           2
 Time =    4006.0000000000000     
Ne    0.000000    0.000000    4.233416
Ne    0.000000    0.000000    0.000000
           2
 Time =    4007.0000000000000     
Ne    0.000000    0.000000    4.233416
Ne    0.000000    0.000000    0.000000
           2
 Time =    4008.0000000000000     
Ne    0.000000    0.000000    4.233416
Ne    0.000000    0.000000    0.000000
           2
 Time =    4009.0000000000000     
Ne    0.000000    0.000000    4.233416
Ne    0.000000    0.000000    0.000000
           2
 Time =    4010.0000000000000     
Ne    0.000000    0.000000    4.233416
Ne    0.000000    0.000000    0.000000
           2
 Time =    4011.0000000000000     
Ne    0.000000    0.000000    4.233416
Ne    0.000000    0.000000    0.000000
           2
 Time =    4012.0000000000000     
Ne    0.000000    0.000000    4.233416
Ne    0.000000    0.000000    0.000000
           2
 Time =    4013.0000000000000     
Ne    0.000000    0.000000    4.233416
Ne    0.000000    0.000000    0.000000
           2
 Time =    4014.0000000000000     
Ne    0.000000    0.000000    4.233416
Ne    0.000000    0.000000    0.000000
           2
 Time =    4015.0000000000000     
Ne    0.000000    0.000000    4.233416
Ne    0.000000    0.000000    0.000000
           2
 Time =    4016.0000000000000     
Ne    0.000000    0.000000    4.233416
Ne    0.000000    0.000000    0.000000
           2
 Time =    4017.0000000000000     
Ne    0.000000    0.000000    4.233416
Ne    0.000000    0.000000    0.000000
           2
 Time =    4018.0000000000000     
Ne    0.000000    0.000000    4.233416
Ne    0.000000    0.000000    0.000000
           2
 Time =    4019.0000000000000     
Ne    0.000000    0.000000    4.233416
Ne    0.000000    0.000000    0.000000
           2
 Time =    4020.0000000000000     
Ne    0.000000    0.000000    4.233416
Ne    0.000000    0.000000    0.000000
           2
 Time =    4021.0000000000000     
Ne    0.000000    0.000000    4.233416
Ne    0.000000    0.000000    0.000000
           2
 Time =    4022.0000000000000     
Ne    0.000000    0.000000    4.233416
Ne    0.000000    0.000000    0.000000
           2
 Time =    4023.0000000000000     
Ne    0.000000    0.000000    4.233416
Ne    0.000000    0.000000    0.000000
           2
 Time =    4024.0000000000000     
Ne    0.000000    0.000000    4.233416
Ne    0.000000    0.000000    0.000000
           2
 Time =    4025.0000000000000     
Ne    0.000000    0.000000    4.233416
Ne    0.000000    0.000000    0.000000
           2
 Time =    4026.0000000000000     
Ne    0.000000    0.000000    4.233416
Ne    0.000000    0.000000    0.000000
           2
 Time =    4027.0000000000000     
Ne    0.000000    0.000000    4.233416
Ne    0.000000    0.000000    0.000000
           2
 Time =    4028.0000000000000     
Ne    0.000000    0.000000    4.233416
Ne    0.000000    0.000000    0.000000
           2
 Time =    4029.0000000000000     
Ne    0.000000    0.000000    4.233416
Ne    0.000000    0.000000    0.000000
           2
 Time =    4030.0000000000000     
Ne    0.000000    0.000000    4.233416
Ne    0.000000    0.000000    0.000000
           2
 Time =    4031.0000000000000     
Ne    0.000000    0.000000    4.233416
Ne    0.000000    0.000000    0.000000
           2
 Time =    4032.0000000000000     
Ne    0.000000    0.000000    4.233416
Ne    0.000000    0.000000    0.000000
           2
 Time =    4033.0000000000000     
Ne    0.000000    0.000000    4.233416
Ne    0.000000    0.000000    0.000000
           2
 Time =    4034.0000000000000     
Ne    0.000000    0.000000    4.233416
Ne    0.000000    0.000000    0.000000
           2
 Time =    4035.0000000000000     
Ne    0.000000    0.000000    4.233416
Ne    0.000000    0.000000    0.000000
           2
 Time =    4036.0000000000000     
Ne    0.000000    0.000000    4.233416
Ne    0.000000    0.000000    0.000000
           2
 Time =    4037.0000000000000     
Ne    0.000000    0.000000    4.233416
Ne    0.000000    0.000000    0.000000
           2
 Time =    4038.0000000000000     
Ne    0.000000    0.000000    4.233416
Ne    0.000000    0.000000    0.000000
           2
 Time =    4039.0000000000000     
Ne    0.000000    0.000000    4.233416
Ne    0.000000    0.000000    0.000000
           2
 Time =    4040.0000000000000     
Ne    0.000000    0.000000    4.233416
Ne    0.000000    0.000000    0.000000
           2
 Time =    4041.0000000000000     
Ne    0.000000    0.000000    4.233416
Ne    0.000000    0.000000    0.000000
           2
 Time =    4042.0000000000000     
Ne    0.000000    0.000000    4.233416
Ne    0.000000    0.000000    0.000000
           2
 Time =    4043.0000000000000     
Ne    0.000000    0.000000    4.233416
Ne    0.000000    0.000000    0.000000
           2
 Time =    4044.0000000000000     
Ne    0.000000    0.000000    4.233416
Ne    0.000000    0.000000    0.000000
           2
 Time =    4045.0000000000000     
Ne    0.000000    0.000000    4.233416
Ne    0.000000    0.000000    0.000000
           2
 Time =    4046.0000000000000     
Ne    0.000000    0.000000    4.233416
Ne    0.000000    0.000000    0.000000
           2
 Time =    4047.0000000000000     
Ne    0.000000    0.000000    4.233416
Ne    0.000000    0.000000    0.000000
           2
 Time =    4048.0000000000000     
Ne    0.000000    0.000000    4.233416
Ne    0.000000    0.000000    0.000000
           2
 Time =    4049.0000000000000     
Ne    0.000000    0.000000    4.233416
Ne    0.000000    0.000000    0.000000
           2
 Time =    4050.0000000000000     
Ne    0.000000    0.000000    4.233416
Ne    0.000000    0.000000    0.000000
           2
 Time =    4051.0000000000000     
Ne    0.000000    0.000000    4.233416
Ne    0.000000    0.000000    0.000000
           2
 Time =    4052.0000000000000     
Ne    0.000000    0.000000    4.233416
Ne    0.000000    0.000000    0.000000
           2
 Time =    4053.0000000000000     
Ne    0.000000    0.000000    4.233416
Ne    0.000000    0.000000    0.000000
           2
 Time =    4054.0000000000000     
Ne    0.000000    0.000000    4.233416
Ne    0.000000    0.000000    0.000000
           2
 Time =    4055.0000000000000     
Ne    0.000000    0.000000    4.233416
Ne    0.000000    0.000000    0.000000
           2
 Time =    4056.0000000000000     
Ne    0.000000    0.000000    4.233416
Ne    0.000000    0.000000    0.000000
           2
 Time =    4057.0000000000000     
Ne    0.000000    0.000000    4.233416
Ne    0.000000    0.000000    0.000000
           2
 Time =    4058.0000000000000     
Ne    0.000000    0.000000    4.233416
Ne    0.000000    0.000000    0.000000
           2
 Time =    4059.0000000000000     
Ne    0.000000    0.000000    4.233416
Ne    0.000000    0.000000    0.000000
           2
 Time =    4060.0000000000000     
Ne    0.000000    0.000000    4.233416
Ne    0.000000    0.000000    0.000000
           2
 Time =    4061.0000000000000     
Ne    0.000000    0.000000    4.233416
Ne    0.000000    0.000000    0.000000
           2
 Time =    4062.0000000000000     
Ne    0.000000    0.000000    4.233416
Ne    0.000000    0.000000    0.000000
           2
 Time =    4063.0000000000000     
Ne    0.000000    0.000000    4.233416
Ne    0.000000    0.000000    0.000000
           2
 Time =    4064.0000000000000     
Ne    0.000000    0.000000    4.233416
Ne    0.000000    0.000000    0.000000
           2
 Time =    4065.0000000000000     
Ne    0.000000    0.000000    4.233416
Ne    0.000000    0.000000    0.000000
           2
 Time =    4066.0000000000000     
Ne    0.000000    0.000000    4.233416
Ne    0.000000    0.000000    0.000000
           2
 Time =    4067.0000000000000     
Ne    0.000000    0.000000    4.233416
Ne    0.000000    0.000000    0.000000
           2
 Time =    4068.0000000000000     
Ne    0.000000    0.000000    4.233416
Ne    0.000000    0.000000    0.000000
           2
 Time =    4069.0000000000000     
Ne    0.000000    0.000000    4.233416
Ne    0.000000    0.000000    0.000000
           2
 Time =    4070.0000000000000     
Ne    0.000000    0.000000    4.233416
Ne    0.000000    0.000000    0.000000
           2
 Time =    4071.0000000000000     
Ne    0.000000    0.000000    4.233416
Ne    0.000000    0.000000    0.000000
           2
 Time =    4072.0000000000000     
Ne    0.000000    0.000000    4.233416
Ne    0.000000    0.000000    0.000000
           2
 Time =    4073.0000000000000     
Ne    0.000000    0.000000    4.233416
Ne    0.000000    0.000000    0.000000
           2
 Time =    4074.0000000000000     
Ne    0.000000    0.000000    4.233416
Ne    0.000000    0.000000    0.000000
           2
 Time =    4075.0000000000000     
Ne    0.000000    0.000000    4.233416
Ne    0.000000    0.000000    0.000000
           2
 Time =    4076.0000000000000     
Ne    0.000000    0.000000    4.233416
Ne    0.000000    0.000000    0.000000
           2
 Time =    4077.0000000000000     
Ne    0.000000    0.000000    4.233416
Ne    0.000000    0.000000    0.000000
           2
 Time =    4078.0000000000000     
Ne    0.000000    0.000000    4.233416
Ne    0.000000    0.000000    0.000000
           2
 Time =    4079.0000000000000     
Ne    0.000000    0.000000    4.233416
Ne    0.000000    0.000000    0.000000
           2
 Time =    4080.0000000000000     
Ne    0.000000    0.000000    4.233416
Ne    0.000000    0.000000    0.000000
           2
 Time =    4081.0000000000000     
Ne    0.000000    0.000000    4.233416
Ne    0.000000    0.000000    0.000000
           2
 Time =    4082.0000000000000     
Ne    0.000000    0.000000    4.233416
Ne    0.000000    0.000000    0.000000
           2
 Time =    4083.0000000000000     
Ne    0.000000    0.000000    4.233416
Ne    0.000000    0.000000    0.000000
           2
 Time =    4084.0000000000000     
Ne    0.000000    0.000000    4.233416
Ne    0.000000    0.000000    0.000000
           2
 Time =    4085.0000000000000     
Ne    0.000000    0.000000    4.233416
Ne    0.000000    0.000000    0.000000
           2
 Time =    4086.0000000000000     
Ne    0.000000    0.000000    4.233416
Ne    0.000000    0.000000    0.000000
           2
 Time =    4087.0000000000000     
Ne    0.000000    0.000000    4.233416
Ne    0.000000    0.000000    0.000000
           2
 Time =    4088.0000000000000     
Ne    0.000000    0.000000    4.233416
Ne    0.000000    0.000000    0.000000
           2
 Time =    4089.0000000000000     
Ne    0.000000    0.000000    4.233416
Ne    0.000000    0.000000    0.000000
           2
 Time =    4090.0000000000000     
Ne    0.000000    0.000000    4.233416
Ne    0.000000    0.000000    0.000000
           2
 Time =    4091.0000000000000     
Ne    0.000000    0.000000    4.233416
Ne    0.000000    0.000000    0.000000
           2
 Time =    4092.0000000000000     
Ne    0.000000    0.000000    4.233416
Ne    0.000000    0.000000    0.000000
           2
 Time =    4093.0000000000000     
Ne    0.000000    0.000000    4.233416
Ne    0.000000    0.000000    0.000000
           2
 Time =    4094.0000000000000     
Ne    0.000000    0.000000    4.233416
Ne    0.000000    0.000000    0.000000
           2
 Time =    4095.0000000000000     
Ne    0.000000    0.000000    4.233416
Ne    0.000000    0.000000    0.000000
           2
 Time =    4096.0000000000000     
Ne    0.000000    0.000000    4.233416
Ne    0.000000    0.000000    0.000000
           2
 Time =    4097.0000000000000     
Ne    0.000000    0.000000    4.233416
Ne    0.000000    0.000000    0.000000
           2
 Time =    4098.0000000000000     
Ne    0.000000    0.000000    4.233416
Ne    0.000000    0.000000    0.000000
           2
 Time =    4099.0000000000000     
Ne    0.000000    0.000000    4.233416
Ne    0.000000    0.000000    0.000000
           2
 Time =    4100.0000000000000     
Ne    0.000000    0.000000    4.233416
Ne    0.000000    0.000000    0.000000
           2
 Time =    4101.0000000000000     
Ne    0.000000    0.000000    4.233416
Ne    0.000000    0.000000    0.000000
           2
 Time =    4102.0000000000000     
Ne    0.000000    0.000000    4.233416
Ne    0.000000    0.000000    0.000000
           2
 Time =    4103.0000000000000     
Ne    0.000000    0.000000    4.233416
Ne    0.000000    0.000000    0.000000
           2
 Time =    4104.0000000000000     
Ne    0.000000    0.000000    4.233416
Ne    0.000000    0.000000    0.000000
           2
 Time =    4105.0000000000000     
Ne    0.000000    0.000000    4.233416
Ne    0.000000    0.000000    0.000000
           2
 Time =    4106.0000000000000     
Ne    0.000000    0.000000    4.233416
Ne    0.000000    0.000000    0.000000
           2
 Time =    4107.0000000000000     
Ne    0.000000    0.000000    4.233416
Ne    0.000000    0.000000    0.000000
           2
 Time =    4108.0000000000000     
Ne    0.000000    0.000000    4.233416
Ne    0.000000    0.000000    0.000000
           2
 Time =    4109.0000000000000     
Ne    0.000000    0.000000    4.233416
Ne    0.000000    0.000000    0.000000
           2
 Time =    4110.0000000000000     
Ne    0.000000    0.000000    4.233416
Ne    0.000000    0.000000    0.000000
           2
 Time =    4111.0000000000000     
Ne    0.000000    0.000000    4.233416
Ne    0.000000    0.000000    0.000000
           2
 Time =    4112.0000000000000     
Ne    0.000000    0.000000    4.233416
Ne    0.000000    0.000000    0.000000
           2
 Time =    4113.0000000000000     
Ne    0.000000    0.000000    4.233416
Ne    0.000000    0.000000    0.000000
           2
 Time =    4114.0000000000000     
Ne    0.000000    0.000000    4.233416
Ne    0.000000    0.000000    0.000000
           2
 Time =    4115.0000000000000     
Ne    0.000000    0.000000    4.233416
Ne    0.000000    0.000000    0.000000
           2
 Time =    4116.0000000000000     
Ne    0.000000    0.000000    4.233416
Ne    0.000000    0.000000    0.000000
           2
 Time =    4117.0000000000000     
Ne    0.000000    0.000000    4.233416
Ne    0.000000    0.000000    0.000000
           2
 Time =    4118.0000000000000     
Ne    0.000000    0.000000    4.233416
Ne    0.000000    0.000000    0.000000
           2
 Time =    4119.0000000000000     
Ne    0.000000    0.000000    4.233416
Ne    0.000000    0.000000    0.000000
           2
 Time =    4120.0000000000000     
Ne    0.000000    0.000000    4.233416
Ne    0.000000    0.000000    0.000000
           2
 Time =    4121.0000000000000     
Ne    0.000000    0.000000    4.233416
Ne    0.000000    0.000000    0.000000
           2
 Time =    4122.0000000000000     
Ne    0.000000    0.000000    4.233416
Ne    0.000000    0.000000    0.000000
           2
 Time =    4123.0000000000000     
Ne    0.000000    0.000000    4.233416
Ne    0.000000    0.000000    0.000000
           2
 Time =    4124.0000000000000     
Ne    0.000000    0.000000    4.233416
Ne    0.000000    0.000000    0.000000
           2
 Time =    4125.0000000000000     
Ne    0.000000    0.000000    4.233416
Ne    0.000000    0.000000    0.000000
           2
 Time =    4126.0000000000000     
Ne    0.000000    0.000000    4.233416
Ne    0.000000    0.000000    0.000000
           2
 Time =    4127.0000000000000     
Ne    0.000000    0.000000    4.233416
Ne    0.000000    0.000000    0.000000
           2
 Time =    4128.0000000000000     
Ne    0.000000    0.000000    4.233416
Ne    0.000000    0.000000    0.000000
           2
 Time =    4129.0000000000000     
Ne    0.000000    0.000000    4.233416
Ne    0.000000    0.000000    0.000000
           2
 Time =    4130.0000000000000     
Ne    0.000000    0.000000    4.233416
Ne    0.000000    0.000000    0.000000
           2
 Time =    4131.0000000000000     
Ne    0.000000    0.000000    4.233416
Ne    0.000000    0.000000    0.000000
           2
 Time =    4132.0000000000000     
Ne    0.000000    0.000000    4.233416
Ne    0.000000    0.000000    0.000000
           2
 Time =    4133.0000000000000     
Ne    0.000000    0.000000    4.233416
Ne    0.000000    0.000000    0.000000
           2
 Time =    4134.0000000000000     
Ne    0.000000    0.000000    4.233416
Ne    0.000000    0.000000    0.000000
           2
 Time =    4135.0000000000000     
Ne    0.000000    0.000000    4.233416
Ne    0.000000    0.000000    0.000000
           2
 Time =    4136.0000000000000     
Ne    0.000000    0.000000    4.233416
Ne    0.000000    0.000000    0.000000
           2
 Time =    4137.0000000000000     
Ne    0.000000    0.000000    4.233416
Ne    0.000000    0.000000    0.000000
           2
 Time =    4138.0000000000000     
Ne    0.000000    0.000000    4.233416
Ne    0.000000    0.000000    0.000000
           2
 Time =    4139.0000000000000     
Ne    0.000000    0.000000    4.233416
Ne    0.000000    0.000000    0.000000
           2
 Time =    4140.0000000000000     
Ne    0.000000    0.000000    4.233416
Ne    0.000000    0.000000    0.000000
           2
 Time =    4141.0000000000000     
Ne    0.000000    0.000000    4.233416
Ne    0.000000    0.000000    0.000000
           2
 Time =    4142.0000000000000     
Ne    0.000000    0.000000    4.233416
Ne    0.000000    0.000000    0.000000
           2
 Time =    4143.0000000000000     
Ne    0.000000    0.000000    4.233416
Ne    0.000000    0.000000    0.000000
           2
 Time =    4144.0000000000000     
Ne    0.000000    0.000000    4.233416
Ne    0.000000    0.000000    0.000000
           2
 Time =    4145.0000000000000     
Ne    0.000000    0.000000    4.233416
Ne    0.000000    0.000000    0.000000
           2
 Time =    4146.0000000000000     
Ne    0.000000    0.000000    4.233416
Ne    0.000000    0.000000    0.000000
           2
 Time =    4147.0000000000000     
Ne    0.000000    0.000000    4.233416
Ne    0.000000    0.000000    0.000000
           2
 Time =    4148.0000000000000     
Ne    0.000000    0.000000    4.233416
Ne    0.000000    0.000000    0.000000
           2
 Time =    4149.0000000000000     
Ne    0.000000    0.000000    4.233416
Ne    0.000000    0.000000    0.000000
           2
 Time =    4150.0000000000000     
Ne    0.000000    0.000000    4.233416
Ne    0.000000    0.000000    0.000000
           2
 Time =    4151.0000000000000     
Ne    0.000000    0.000000    4.233416
Ne    0.000000    0.000000    0.000000
           2
 Time =    4152.0000000000000     
Ne    0.000000    0.000000    4.233416
Ne    0.000000    0.000000    0.000000
           2
 Time =    4153.0000000000000     
Ne    0.000000    0.000000    4.233416
Ne    0.000000    0.000000    0.000000
           2
 Time =    4154.0000000000000     
Ne    0.000000    0.000000    4.233416
Ne    0.000000    0.000000    0.000000
           2
 Time =    4155.0000000000000     
Ne    0.000000    0.000000    4.233416
Ne    0.000000    0.000000    0.000000
           2
 Time =    4156.0000000000000     
Ne    0.000000    0.000000    4.233416
Ne    0.000000    0.000000    0.000000
           2
 Time =    4157.0000000000000     
Ne    0.000000    0.000000    4.233416
Ne    0.000000    0.000000    0.000000
           2
 Time =    4158.0000000000000     
Ne    0.000000    0.000000    4.233416
Ne    0.000000    0.000000    0.000000
           2
 Time =    4159.0000000000000     
Ne    0.000000    0.000000    4.233416
Ne    0.000000    0.000000    0.000000
           2
 Time =    4160.0000000000000     
Ne    0.000000    0.000000    4.233416
Ne    0.000000    0.000000    0.000000
           2
 Time =    4161.0000000000000     
Ne    0.000000    0.000000    4.233416
Ne    0.000000    0.000000    0.000000
           2
 Time =    4162.0000000000000     
Ne    0.000000    0.000000    4.233416
Ne    0.000000    0.000000    0.000000
           2
 Time =    4163.0000000000000     
Ne    0.000000    0.000000    4.233416
Ne    0.000000    0.000000    0.000000
           2
 Time =    4164.0000000000000     
Ne    0.000000    0.000000    4.233416
Ne    0.000000    0.000000    0.000000
           2
 Time =    4165.0000000000000     
Ne    0.000000    0.000000    4.233416
Ne    0.000000    0.000000    0.000000
           2
 Time =    4166.0000000000000     
Ne    0.000000    0.000000    4.233416
Ne    0.000000    0.000000    0.000000
           2
 Time =    4167.0000000000000     
Ne    0.000000    0.000000    4.233416
Ne    0.000000    0.000000    0.000000
           2
 Time =    4168.0000000000000     
Ne    0.000000    0.000000    4.233416
Ne    0.000000    0.000000    0.000000
           2
 Time =    4169.0000000000000     
Ne    0.000000    0.000000    4.233416
Ne    0.000000    0.000000    0.000000
           2
 Time =    4170.0000000000000     
Ne    0.000000    0.000000    4.233416
Ne    0.000000    0.000000    0.000000
           2
 Time =    4171.0000000000000     
Ne    0.000000    0.000000    4.233416
Ne    0.000000    0.000000    0.000000
           2
 Time =    4172.0000000000000     
Ne    0.000000    0.000000    4.233416
Ne    0.000000    0.000000    0.000000
           2
 Time =    4173.0000000000000     
Ne    0.000000    0.000000    4.233416
Ne    0.000000    0.000000    0.000000
           2
 Time =    4174.0000000000000     
Ne    0.000000    0.000000    4.233416
Ne    0.000000    0.000000    0.000000
           2
 Time =    4175.0000000000000     
Ne    0.000000    0.000000    4.233416
Ne    0.000000    0.000000    0.000000
           2
 Time =    4176.0000000000000     
Ne    0.000000    0.000000    4.233416
Ne    0.000000    0.000000    0.000000
           2
 Time =    4177.0000000000000     
Ne    0.000000    0.000000    4.233416
Ne    0.000000    0.000000    0.000000
           2
 Time =    4178.0000000000000     
Ne    0.000000    0.000000    4.233416
Ne    0.000000    0.000000    0.000000
           2
 Time =    4179.0000000000000     
Ne    0.000000    0.000000    4.233416
Ne    0.000000    0.000000    0.000000
           2
 Time =    4180.0000000000000     
Ne    0.000000    0.000000    4.233416
Ne    0.000000    0.000000    0.000000
           2
 Time =    4181.0000000000000     
Ne    0.000000    0.000000    4.233416
Ne    0.000000    0.000000    0.000000
           2
 Time =    4182.0000000000000     
Ne    0.000000    0.000000    4.233416
Ne    0.000000    0.000000    0.000000
           2
 Time =    4183.0000000000000     
Ne    0.000000    0.000000    4.233416
Ne    0.000000    0.000000    0.000000
           2
 Time =    4184.0000000000000     
Ne    0.000000    0.000000    4.233416
Ne    0.000000    0.000000    0.000000
           2
 Time =    4185.0000000000000     
Ne    0.000000    0.000000    4.233416
Ne    0.000000    0.000000    0.000000
           2
 Time =    4186.0000000000000     
Ne    0.000000    0.000000    4.233416
Ne    0.000000    0.000000    0.000000
           2
 Time =    4187.0000000000000     
Ne    0.000000    0.000000    4.233416
Ne    0.000000    0.000000    0.000000
           2
 Time =    4188.0000000000000     
Ne    0.000000    0.000000    4.233416
Ne    0.000000    0.000000    0.000000
           2
 Time =    4189.0000000000000     
Ne    0.000000    0.000000    4.233416
Ne    0.000000    0.000000    0.000000
           2
 Time =    4190.0000000000000     
Ne    0.000000    0.000000    4.233416
Ne    0.000000    0.000000    0.000000
           2
 Time =    4191.0000000000000     
Ne    0.000000    0.000000    4.233416
Ne    0.000000    0.000000    0.000000
           2
 Time =    4192.0000000000000     
Ne    0.000000    0.000000    4.233416
Ne    0.000000    0.000000    0.000000
           2
 Time =    4193.0000000000000     
Ne    0.000000    0.000000    4.233416
Ne    0.000000    0.000000    0.000000
           2
 Time =    4194.0000000000000     
Ne    0.000000    0.000000    4.233416
Ne    0.000000    0.000000    0.000000
           2
 Time =    4195.0000000000000     
Ne    0.000000    0.000000    4.233416
Ne    0.000000    0.000000    0.000000
           2
 Time =    4196.0000000000000     
Ne    0.000000    0.000000    4.233416
Ne    0.000000    0.000000    0.000000
           2
 Time =    4197.0000000000000     
Ne    0.000000    0.000000    4.233416
Ne    0.000000    0.000000    0.000000
           2
 Time =    4198.0000000000000     
Ne    0.000000    0.000000    4.233416
Ne    0.000000    0.000000    0.000000
           2
 Time =    4199.0000000000000     
Ne    0.000000    0.000000    4.233416
Ne    0.000000    0.000000    0.000000
           2
 Time =    4200.0000000000000     
Ne    0.000000    0.000000    4.233416
Ne    0.000000    0.000000    0.000000
           2
 Time =    4201.0000000000000     
Ne    0.000000    0.000000    4.233416
Ne    0.000000    0.000000    0.000000
           2
 Time =    4202.0000000000000     
Ne    0.000000    0.000000    4.233416
Ne    0.000000    0.000000    0.000000
           2
 Time =    4203.0000000000000     
Ne    0.000000    0.000000    4.233416
Ne    0.000000    0.000000    0.000000
           2
 Time =    4204.0000000000000     
Ne    0.000000    0.000000    4.233416
Ne    0.000000    0.000000    0.000000
           2
 Time =    4205.0000000000000     
Ne    0.000000    0.000000    4.233416
Ne    0.000000    0.000000    0.000000
           2
 Time =    4206.0000000000000     
Ne    0.000000    0.000000    4.233416
Ne    0.000000    0.000000    0.000000
           2
 Time =    4207.0000000000000     
Ne    0.000000    0.000000    4.233416
Ne    0.000000    0.000000    0.000000
           2
 Time =    4208.0000000000000     
Ne    0.000000    0.000000    4.233416
Ne    0.000000    0.000000    0.000000
           2
 Time =    4209.0000000000000     
Ne    0.000000    0.000000    4.233416
Ne    0.000000    0.000000    0.000000
           2
 Time =    4210.0000000000000     
Ne    0.000000    0.000000    4.233416
Ne    0.000000    0.000000    0.000000
           2
 Time =    4211.0000000000000     
Ne    0.000000    0.000000    4.233416
Ne    0.000000    0.000000    0.000000
           2
 Time =    4212.0000000000000     
Ne    0.000000    0.000000    4.233416
Ne    0.000000    0.000000    0.000000
           2
 Time =    4213.0000000000000     
Ne    0.000000    0.000000    4.233416
Ne    0.000000    0.000000    0.000000
           2
 Time =    4214.0000000000000     
Ne    0.000000    0.000000    4.233416
Ne    0.000000    0.000000    0.000000
           2
 Time =    4215.0000000000000     
Ne    0.000000    0.000000    4.233416
Ne    0.000000    0.000000    0.000000
           2
 Time =    4216.0000000000000     
Ne    0.000000    0.000000    4.233416
Ne    0.000000    0.000000    0.000000
           2
 Time =    4217.0000000000000     
Ne    0.000000    0.000000    4.233416
Ne    0.000000    0.000000    0.000000
           2
 Time =    4218.0000000000000     
Ne    0.000000    0.000000    4.233416
Ne    0.000000    0.000000    0.000000
           2
 Time =    4219.0000000000000     
Ne    0.000000    0.000000    4.233416
Ne    0.000000    0.000000    0.000000
           2
 Time =    4220.0000000000000     
Ne    0.000000    0.000000    4.233416
Ne    0.000000    0.000000    0.000000
           2
 Time =    4221.0000000000000     
Ne    0.000000    0.000000    4.233416
Ne    0.000000    0.000000    0.000000
           2
 Time =    4222.0000000000000     
Ne    0.000000    0.000000    4.233416
Ne    0.000000    0.000000    0.000000
           2
 Time =    4223.0000000000000     
Ne    0.000000    0.000000    4.233416
Ne    0.000000    0.000000    0.000000
           2
 Time =    4224.0000000000000     
Ne    0.000000    0.000000    4.233416
Ne    0.000000    0.000000    0.000000
           2
 Time =    4225.0000000000000     
Ne    0.000000    0.000000    4.233416
Ne    0.000000    0.000000    0.000000
           2
 Time =    4226.0000000000000     
Ne    0.000000    0.000000    4.233416
Ne    0.000000    0.000000    0.000000
           2
 Time =    4227.0000000000000     
Ne    0.000000    0.000000    4.233416
Ne    0.000000    0.000000    0.000000
           2
 Time =    4228.0000000000000     
Ne    0.000000    0.000000    4.233416
Ne    0.000000    0.000000    0.000000
           2
 Time =    4229.0000000000000     
Ne    0.000000    0.000000    4.233416
Ne    0.000000    0.000000    0.000000
           2
 Time =    4230.0000000000000     
Ne    0.000000    0.000000    4.233416
Ne    0.000000    0.000000    0.000000
           2
 Time =    4231.0000000000000     
Ne    0.000000    0.000000    4.233416
Ne    0.000000    0.000000    0.000000
           2
 Time =    4232.0000000000000     
Ne    0.000000    0.000000    4.233416
Ne    0.000000    0.000000    0.000000
           2
 Time =    4233.0000000000000     
Ne    0.000000    0.000000    4.233416
Ne    0.000000    0.000000    0.000000
           2
 Time =    4234.0000000000000     
Ne    0.000000    0.000000    4.233416
Ne    0.000000    0.000000    0.000000
           2
 Time =    4235.0000000000000     
Ne    0.000000    0.000000    4.233416
Ne    0.000000    0.000000    0.000000
           2
 Time =    4236.0000000000000     
Ne    0.000000    0.000000    4.233416
Ne    0.000000    0.000000    0.000000
           2
 Time =    4237.0000000000000     
Ne    0.000000    0.000000    4.233416
Ne    0.000000    0.000000    0.000000
           2
 Time =    4238.0000000000000     
Ne    0.000000    0.000000    4.233416
Ne    0.000000    0.000000    0.000000
           2
 Time =    4239.0000000000000     
Ne    0.000000    0.000000    4.233416
Ne    0.000000    0.000000    0.000000
           2
 Time =    4240.0000000000000     
Ne    0.000000    0.000000    4.233416
Ne    0.000000    0.000000    0.000000
           2
 Time =    4241.0000000000000     
Ne    0.000000    0.000000    4.233416
Ne    0.000000    0.000000    0.000000
           2
 Time =    4242.0000000000000     
Ne    0.000000    0.000000    4.233416
Ne    0.000000    0.000000    0.000000
           2
 Time =    4243.0000000000000     
Ne    0.000000    0.000000    4.233416
Ne    0.000000    0.000000    0.000000
           2
 Time =    4244.0000000000000     
Ne    0.000000    0.000000    4.233416
Ne    0.000000    0.000000    0.000000
           2
 Time =    4245.0000000000000     
Ne    0.000000    0.000000    4.233416
Ne    0.000000    0.000000    0.000000
           2
 Time =    4246.0000000000000     
Ne    0.000000    0.000000    4.233416
Ne    0.000000    0.000000    0.000000
           2
 Time =    4247.0000000000000     
Ne    0.000000    0.000000    4.233416
Ne    0.000000    0.000000    0.000000
           2
 Time =    4248.0000000000000     
Ne    0.000000    0.000000    4.233416
Ne    0.000000    0.000000    0.000000
           2
 Time =    4249.0000000000000     
Ne    0.000000    0.000000    4.233416
Ne    0.000000    0.000000    0.000000
           2
 Time =    4250.0000000000000     
Ne    0.000000    0.000000    4.233416
Ne    0.000000    0.000000    0.000000
           2
 Time =    4251.0000000000000     
Ne    0.000000    0.000000    4.233416
Ne    0.000000    0.000000    0.000000
           2
 Time =    4252.0000000000000     
Ne    0.000000    0.000000    4.233416
Ne    0.000000    0.000000    0.000000
           2
 Time =    4253.0000000000000     
Ne    0.000000    0.000000    4.233416
Ne    0.000000    0.000000    0.000000
           2
 Time =    4254.0000000000000     
Ne    0.000000    0.000000    4.233416
Ne    0.000000    0.000000    0.000000
           2
 Time =    4255.0000000000000     
Ne    0.000000    0.000000    4.233416
Ne    0.000000    0.000000    0.000000
           2
 Time =    4256.0000000000000     
Ne    0.000000    0.000000    4.233416
Ne    0.000000    0.000000    0.000000
           2
 Time =    4257.0000000000000     
Ne    0.000000    0.000000    4.233416
Ne    0.000000    0.000000    0.000000
           2
 Time =    4258.0000000000000     
Ne    0.000000    0.000000    4.233416
Ne    0.000000    0.000000    0.000000
           2
 Time =    4259.0000000000000     
Ne    0.000000    0.000000    4.233416
Ne    0.000000    0.000000    0.000000
           2
 Time =    4260.0000000000000     
Ne    0.000000    0.000000    4.233416
Ne    0.000000    0.000000    0.000000
           2
 Time =    4261.0000000000000     
Ne    0.000000    0.000000    4.233416
Ne    0.000000    0.000000    0.000000
           2
 Time =    4262.0000000000000     
Ne    0.000000    0.000000    4.233416
Ne    0.000000    0.000000    0.000000
           2
 Time =    4263.0000000000000     
Ne    0.000000    0.000000    4.233416
Ne    0.000000    0.000000    0.000000
           2
 Time =    4264.0000000000000     
Ne    0.000000    0.000000    4.233416
Ne    0.000000    0.000000    0.000000
           2
 Time =    4265.0000000000000     
Ne    0.000000    0.000000    4.233416
Ne    0.000000    0.000000    0.000000
           2
 Time =    4266.0000000000000     
Ne    0.000000    0.000000    4.233416
Ne    0.000000    0.000000    0.000000
           2
 Time =    4267.0000000000000     
Ne    0.000000    0.000000    4.233416
Ne    0.000000    0.000000    0.000000
           2
 Time =    4268.0000000000000     
Ne    0.000000    0.000000    4.233416
Ne    0.000000    0.000000    0.000000
           2
 Time =    4269.0000000000000     
Ne    0.000000    0.000000    4.233416
Ne    0.000000    0.000000    0.000000
           2
 Time =    4270.0000000000000     
Ne    0.000000    0.000000    4.233416
Ne    0.000000    0.000000    0.000000
           2
 Time =    4271.0000000000000     
Ne    0.000000    0.000000    4.233416
Ne    0.000000    0.000000    0.000000
           2
 Time =    4272.0000000000000     
Ne    0.000000    0.000000    4.233416
Ne    0.000000    0.000000    0.000000
           2
 Time =    4273.0000000000000     
Ne    0.000000    0.000000    4.233416
Ne    0.000000    0.000000    0.000000
           2
 Time =    4274.0000000000000     
Ne    0.000000    0.000000    4.233416
Ne    0.000000    0.000000    0.000000
           2
 Time =    4275.0000000000000     
Ne    0.000000    0.000000    4.233416
Ne    0.000000    0.000000    0.000000
           2
 Time =    4276.0000000000000     
Ne    0.000000    0.000000    4.233416
Ne    0.000000    0.000000    0.000000
           2
 Time =    4277.0000000000000     
Ne    0.000000    0.000000    4.233416
Ne    0.000000    0.000000    0.000000
           2
 Time =    4278.0000000000000     
Ne    0.000000    0.000000    4.233416
Ne    0.000000    0.000000    0.000000
           2
 Time =    4279.0000000000000     
Ne    0.000000    0.000000    4.233416
Ne    0.000000    0.000000    0.000000
           2
 Time =    4280.0000000000000     
Ne    0.000000    0.000000    4.233416
Ne    0.000000    0.000000    0.000000
           2
 Time =    4281.0000000000000     
Ne    0.000000    0.000000    4.233416
Ne    0.000000    0.000000    0.000000
           2
 Time =    4282.0000000000000     
Ne    0.000000    0.000000    4.233416
Ne    0.000000    0.000000    0.000000
           2
 Time =    4283.0000000000000     
Ne    0.000000    0.000000    4.233416
Ne    0.000000    0.000000    0.000000
           2
 Time =    4284.0000000000000     
Ne    0.000000    0.000000    4.233416
Ne    0.000000    0.000000    0.000000
           2
 Time =    4285.0000000000000     
Ne    0.000000    0.000000    4.233416
Ne    0.000000    0.000000    0.000000
           2
 Time =    4286.0000000000000     
Ne    0.000000    0.000000    4.233416
Ne    0.000000    0.000000    0.000000
           2
 Time =    4287.0000000000000     
Ne    0.000000    0.000000    4.233416
Ne    0.000000    0.000000    0.000000
           2
 Time =    4288.0000000000000     
Ne    0.000000    0.000000    4.233416
Ne    0.000000    0.000000    0.000000
           2
 Time =    4289.0000000000000     
Ne    0.000000    0.000000    4.233416
Ne    0.000000    0.000000    0.000000
           2
 Time =    4290.0000000000000     
Ne    0.000000    0.000000    4.233416
Ne    0.000000    0.000000    0.000000
           2
 Time =    4291.0000000000000     
Ne    0.000000    0.000000    4.233416
Ne    0.000000    0.000000    0.000000
           2
 Time =    4292.0000000000000     
Ne    0.000000    0.000000    4.233416
Ne    0.000000    0.000000    0.000000
           2
 Time =    4293.0000000000000     
Ne    0.000000    0.000000    4.233416
Ne    0.000000    0.000000    0.000000
           2
 Time =    4294.0000000000000     
Ne    0.000000    0.000000    4.233416
Ne    0.000000    0.000000    0.000000
           2
 Time =    4295.0000000000000     
Ne    0.000000    0.000000    4.233416
Ne    0.000000    0.000000    0.000000
           2
 Time =    4296.0000000000000     
Ne    0.000000    0.000000    4.233416
Ne    0.000000    0.000000    0.000000
           2
 Time =    4297.0000000000000     
Ne    0.000000    0.000000    4.233416
Ne    0.000000    0.000000    0.000000
           2
 Time =    4298.0000000000000     
Ne    0.000000    0.000000    4.233416
Ne    0.000000    0.000000    0.000000
           2
 Time =    4299.0000000000000     
Ne    0.000000    0.000000    4.233416
Ne    0.000000    0.000000    0.000000
           2
 Time =    4300.0000000000000     
Ne    0.000000    0.000000    4.233416
Ne    0.000000    0.000000    0.000000
           2
 Time =    4301.0000000000000     
Ne    0.000000    0.000000    4.233416
Ne    0.000000    0.000000    0.000000
           2
 Time =    4302.0000000000000     
Ne    0.000000    0.000000    4.233416
Ne    0.000000    0.000000    0.000000
           2
 Time =    4303.0000000000000     
Ne    0.000000    0.000000    4.233416
Ne    0.000000    0.000000    0.000000
           2
 Time =    4304.0000000000000     
Ne    0.000000    0.000000    4.233416
Ne    0.000000    0.000000    0.000000
           2
 Time =    4305.0000000000000     
Ne    0.000000    0.000000    4.233416
Ne    0.000000    0.000000    0.000000
           2
 Time =    4306.0000000000000     
Ne    0.000000    0.000000    4.233416
Ne    0.000000    0.000000    0.000000
           2
 Time =    4307.0000000000000     
Ne    0.000000    0.000000    4.233416
Ne    0.000000    0.000000    0.000000
           2
 Time =    4308.0000000000000     
Ne    0.000000    0.000000    4.233416
Ne    0.000000    0.000000    0.000000
           2
 Time =    4309.0000000000000     
Ne    0.000000    0.000000    4.233416
Ne    0.000000    0.000000    0.000000
           2
 Time =    4310.0000000000000     
Ne    0.000000    0.000000    4.233416
Ne    0.000000    0.000000    0.000000
           2
 Time =    4311.0000000000000     
Ne    0.000000    0.000000    4.233416
Ne    0.000000    0.000000    0.000000
           2
 Time =    4312.0000000000000     
Ne    0.000000    0.000000    4.233416
Ne    0.000000    0.000000    0.000000
           2
 Time =    4313.0000000000000     
Ne    0.000000    0.000000    4.233416
Ne    0.000000    0.000000    0.000000
           2
 Time =    4314.0000000000000     
Ne    0.000000    0.000000    4.233416
Ne    0.000000    0.000000    0.000000
           2
 Time =    4315.0000000000000     
Ne    0.000000    0.000000    4.233416
Ne    0.000000    0.000000    0.000000
           2
 Time =    4316.0000000000000     
Ne    0.000000    0.000000    4.233416
Ne    0.000000    0.000000    0.000000
           2
 Time =    4317.0000000000000     
Ne    0.000000    0.000000    4.233416
Ne    0.000000    0.000000    0.000000
           2
 Time =    4318.0000000000000     
Ne    0.000000    0.000000    4.233416
Ne    0.000000    0.000000    0.000000
           2
 Time =    4319.0000000000000     
Ne    0.000000    0.000000    4.233416
Ne    0.000000    0.000000    0.000000
           2
 Time =    4320.0000000000000     
Ne    0.000000    0.000000    4.233416
Ne    0.000000    0.000000    0.000000
           2
 Time =    4321.0000000000000     
Ne    0.000000    0.000000    4.233416
Ne    0.000000    0.000000    0.000000
           2
 Time =    4322.0000000000000     
Ne    0.000000    0.000000    4.233416
Ne    0.000000    0.000000    0.000000
           2
 Time =    4323.0000000000000     
Ne    0.000000    0.000000    4.233416
Ne    0.000000    0.000000    0.000000
           2
 Time =    4324.0000000000000     
Ne    0.000000    0.000000    4.233416
Ne    0.000000    0.000000    0.000000
           2
 Time =    4325.0000000000000     
Ne    0.000000    0.000000    4.233416
Ne    0.000000    0.000000    0.000000
           2
 Time =    4326.0000000000000     
Ne    0.000000    0.000000    4.233416
Ne    0.000000    0.000000    0.000000
           2
 Time =    4327.0000000000000     
Ne    0.000000    0.000000    4.233416
Ne    0.000000    0.000000    0.000000
           2
 Time =    4328.0000000000000     
Ne    0.000000    0.000000    4.233416
Ne    0.000000    0.000000    0.000000
           2
 Time =    4329.0000000000000     
Ne    0.000000    0.000000    4.233416
Ne    0.000000    0.000000    0.000000
           2
 Time =    4330.0000000000000     
Ne    0.000000    0.000000    4.233416
Ne    0.000000    0.000000    0.000000
           2
 Time =    4331.0000000000000     
Ne    0.000000    0.000000    4.233416
Ne    0.000000    0.000000    0.000000
           2
 Time =    4332.0000000000000     
Ne    0.000000    0.000000    4.233416
Ne    0.000000    0.000000    0.000000
           2
 Time =    4333.0000000000000     
Ne    0.000000    0.000000    4.233416
Ne    0.000000    0.000000    0.000000
           2
 Time =    4334.0000000000000     
Ne    0.000000    0.000000    4.233416
Ne    0.000000    0.000000    0.000000
           2
 Time =    4335.0000000000000     
Ne    0.000000    0.000000    4.233416
Ne    0.000000    0.000000    0.000000
           2
 Time =    4336.0000000000000     
Ne    0.000000    0.000000    4.233416
Ne    0.000000    0.000000    0.000000
           2
 Time =    4337.0000000000000     
Ne    0.000000    0.000000    4.233416
Ne    0.000000    0.000000    0.000000
           2
 Time =    4338.0000000000000     
Ne    0.000000    0.000000    4.233416
Ne    0.000000    0.000000    0.000000
           2
 Time =    4339.0000000000000     
Ne    0.000000    0.000000    4.233416
Ne    0.000000    0.000000    0.000000
           2
 Time =    4340.0000000000000     
Ne    0.000000    0.000000    4.233416
Ne    0.000000    0.000000    0.000000
           2
 Time =    4341.0000000000000     
Ne    0.000000    0.000000    4.233416
Ne    0.000000    0.000000    0.000000
           2
 Time =    4342.0000000000000     
Ne    0.000000    0.000000    4.233416
Ne    0.000000    0.000000    0.000000
           2
 Time =    4343.0000000000000     
Ne    0.000000    0.000000    4.233416
Ne    0.000000    0.000000    0.000000
           2
 Time =    4344.0000000000000     
Ne    0.000000    0.000000    4.233416
Ne    0.000000    0.000000    0.000000
           2
 Time =    4345.0000000000000     
Ne    0.000000    0.000000    4.233416
Ne    0.000000    0.000000    0.000000
           2
 Time =    4346.0000000000000     
Ne    0.000000    0.000000    4.233416
Ne    0.000000    0.000000    0.000000
           2
 Time =    4347.0000000000000     
Ne    0.000000    0.000000    4.233416
Ne    0.000000    0.000000    0.000000
           2
 Time =    4348.0000000000000     
Ne    0.000000    0.000000    4.233416
Ne    0.000000    0.000000    0.000000
           2
 Time =    4349.0000000000000     
Ne    0.000000    0.000000    4.233416
Ne    0.000000    0.000000    0.000000
           2
 Time =    4350.0000000000000     
Ne    0.000000    0.000000    4.233416
Ne    0.000000    0.000000    0.000000
           2
 Time =    4351.0000000000000     
Ne    0.000000    0.000000    4.233416
Ne    0.000000    0.000000    0.000000
           2
 Time =    4352.0000000000000     
Ne    0.000000    0.000000    4.233416
Ne    0.000000    0.000000    0.000000
           2
 Time =    4353.0000000000000     
Ne    0.000000    0.000000    4.233416
Ne    0.000000    0.000000    0.000000
           2
 Time =    4354.0000000000000     
Ne    0.000000    0.000000    4.233416
Ne    0.000000    0.000000    0.000000
           2
 Time =    4355.0000000000000     
Ne    0.000000    0.000000    4.233416
Ne    0.000000    0.000000    0.000000
           2
 Time =    4356.0000000000000     
Ne    0.000000    0.000000    4.233416
Ne    0.000000    0.000000    0.000000
           2
 Time =    4357.0000000000000     
Ne    0.000000    0.000000    4.233416
Ne    0.000000    0.000000    0.000000
           2
 Time =    4358.0000000000000     
Ne    0.000000    0.000000    4.233416
Ne    0.000000    0.000000    0.000000
           2
 Time =    4359.0000000000000     
Ne    0.000000    0.000000    4.233416
Ne    0.000000    0.000000    0.000000
           2
 Time =    4360.0000000000000     
Ne    0.000000    0.000000    4.233416
Ne    0.000000    0.000000    0.000000
           2
 Time =    4361.0000000000000     
Ne    0.000000    0.000000    4.233416
Ne    0.000000    0.000000    0.000000
           2
 Time =    4362.0000000000000     
Ne    0.000000    0.000000    4.233416
Ne    0.000000    0.000000    0.000000
           2
 Time =    4363.0000000000000     
Ne    0.000000    0.000000    4.233416
Ne    0.000000    0.000000    0.000000
           2
 Time =    4364.0000000000000     
Ne    0.000000    0.000000    4.233416
Ne    0.000000    0.000000    0.000000
           2
 Time =    4365.0000000000000     
Ne    0.000000    0.000000    4.233416
Ne    0.000000    0.000000    0.000000
           2
 Time =    4366.0000000000000     
Ne    0.000000    0.000000    4.233416
Ne    0.000000    0.000000    0.000000
           2
 Time =    4367.0000000000000     
Ne    0.000000    0.000000    4.233416
Ne    0.000000    0.000000    0.000000
           2
 Time =    4368.0000000000000     
Ne    0.000000    0.000000    4.233416
Ne    0.000000    0.000000    0.000000
           2
 Time =    4369.0000000000000     
Ne    0.000000    0.000000    4.233416
Ne    0.000000    0.000000    0.000000
           2
 Time =    4370.0000000000000     
Ne    0.000000    0.000000    4.233416
Ne    0.000000    0.000000    0.000000
           2
 Time =    4371.0000000000000     
Ne    0.000000    0.000000    4.233416
Ne    0.000000    0.000000    0.000000
           2
 Time =    4372.0000000000000     
Ne    0.000000    0.000000    4.233416
Ne    0.000000    0.000000    0.000000
           2
 Time =    4373.0000000000000     
Ne    0.000000    0.000000    4.233416
Ne    0.000000    0.000000    0.000000
           2
 Time =    4374.0000000000000     
Ne    0.000000    0.000000    4.233416
Ne    0.000000    0.000000    0.000000
           2
 Time =    4375.0000000000000     
Ne    0.000000    0.000000    4.233416
Ne    0.000000    0.000000    0.000000
           2
 Time =    4376.0000000000000     
Ne    0.000000    0.000000    4.233416
Ne    0.000000    0.000000    0.000000
           2
 Time =    4377.0000000000000     
Ne    0.000000    0.000000    4.233416
Ne    0.000000    0.000000    0.000000
           2
 Time =    4378.0000000000000     
Ne    0.000000    0.000000    4.233416
Ne    0.000000    0.000000    0.000000
           2
 Time =    4379.0000000000000     
Ne    0.000000    0.000000    4.233416
Ne    0.000000    0.000000    0.000000
           2
 Time =    4380.0000000000000     
Ne    0.000000    0.000000    4.233416
Ne    0.000000    0.000000    0.000000
           2
 Time =    4381.0000000000000     
Ne    0.000000    0.000000    4.233416
Ne    0.000000    0.000000    0.000000
           2
 Time =    4382.0000000000000     
Ne    0.000000    0.000000    4.233416
Ne    0.000000    0.000000    0.000000
           2
 Time =    4383.0000000000000     
Ne    0.000000    0.000000    4.233416
Ne    0.000000    0.000000    0.000000
           2
 Time =    4384.0000000000000     
Ne    0.000000    0.000000    4.233416
Ne    0.000000    0.000000    0.000000
           2
 Time =    4385.0000000000000     
Ne    0.000000    0.000000    4.233416
Ne    0.000000    0.000000    0.000000
           2
 Time =    4386.0000000000000     
Ne    0.000000    0.000000    4.233416
Ne    0.000000    0.000000    0.000000
           2
 Time =    4387.0000000000000     
Ne    0.000000    0.000000    4.233416
Ne    0.000000    0.000000    0.000000
           2
 Time =    4388.0000000000000     
Ne    0.000000    0.000000    4.233416
Ne    0.000000    0.000000    0.000000
           2
 Time =    4389.0000000000000     
Ne    0.000000    0.000000    4.233416
Ne    0.000000    0.000000    0.000000
           2
 Time =    4390.0000000000000     
Ne    0.000000    0.000000    4.233416
Ne    0.000000    0.000000    0.000000
           2
 Time =    4391.0000000000000     
Ne    0.000000    0.000000    4.233416
Ne    0.000000    0.000000    0.000000
           2
 Time =    4392.0000000000000     
Ne    0.000000    0.000000    4.233416
Ne    0.000000    0.000000    0.000000
           2
 Time =    4393.0000000000000     
Ne    0.000000    0.000000    4.233416
Ne    0.000000    0.000000    0.000000
           2
 Time =    4394.0000000000000     
Ne    0.000000    0.000000    4.233416
Ne    0.000000    0.000000    0.000000
           2
 Time =    4395.0000000000000     
Ne    0.000000    0.000000    4.233416
Ne    0.000000    0.000000    0.000000
           2
 Time =    4396.0000000000000     
Ne    0.000000    0.000000    4.233416
Ne    0.000000    0.000000    0.000000
           2
 Time =    4397.0000000000000     
Ne    0.000000    0.000000    4.233416
Ne    0.000000    0.000000    0.000000
           2
 Time =    4398.0000000000000     
Ne    0.000000    0.000000    4.233416
Ne    0.000000    0.000000    0.000000
           2
 Time =    4399.0000000000000     
Ne    0.000000    0.000000    4.233416
Ne    0.000000    0.000000    0.000000
           2
 Time =    4400.0000000000000     
Ne    0.000000    0.000000    4.233416
Ne    0.000000    0.000000    0.000000
           2
 Time =    4401.0000000000000     
Ne    0.000000    0.000000    4.233416
Ne    0.000000    0.000000    0.000000
           2
 Time =    4402.0000000000000     
Ne    0.000000    0.000000    4.233416
Ne    0.000000    0.000000    0.000000
           2
 Time =    4403.0000000000000     
Ne    0.000000    0.000000    4.233416
Ne    0.000000    0.000000    0.000000
           2
 Time =    4404.0000000000000     
Ne    0.000000    0.000000    4.233416
Ne    0.000000    0.000000    0.000000
           2
 Time =    4405.0000000000000     
Ne    0.000000    0.000000    4.233416
Ne    0.000000    0.000000    0.000000
           2
 Time =    4406.0000000000000     
Ne    0.000000    0.000000    4.233416
Ne    0.000000    0.000000    0.000000
           2
 Time =    4407.0000000000000     
Ne    0.000000    0.000000    4.233416
Ne    0.000000    0.000000    0.000000
           2
 Time =    4408.0000000000000     
Ne    0.000000    0.000000    4.233416
Ne    0.000000    0.000000    0.000000
           2
 Time =    4409.0000000000000     
Ne    0.000000    0.000000    4.233416
Ne    0.000000    0.000000    0.000000
           2
 Time =    4410.0000000000000     
Ne    0.000000    0.000000    4.233416
Ne    0.000000    0.000000    0.000000
           2
 Time =    4411.0000000000000     
Ne    0.000000    0.000000    4.233416
Ne    0.000000    0.000000    0.000000
           2
 Time =    4412.0000000000000     
Ne    0.000000    0.000000    4.233416
Ne    0.000000    0.000000    0.000000
           2
 Time =    4413.0000000000000     
Ne    0.000000    0.000000    4.233416
Ne    0.000000    0.000000    0.000000
           2
 Time =    4414.0000000000000     
Ne    0.000000    0.000000    4.233416
Ne    0.000000    0.000000    0.000000
           2
 Time =    4415.0000000000000     
Ne    0.000000    0.000000    4.233416
Ne    0.000000    0.000000    0.000000
           2
 Time =    4416.0000000000000     
Ne    0.000000    0.000000    4.233416
Ne    0.000000    0.000000    0.000000
           2
 Time =    4417.0000000000000     
Ne    0.000000    0.000000    4.233416
Ne    0.000000    0.000000    0.000000
           2
 Time =    4418.0000000000000     
Ne    0.000000    0.000000    4.233416
Ne    0.000000    0.000000    0.000000
           2
 Time =    4419.0000000000000     
Ne    0.000000    0.000000    4.233416
Ne    0.000000    0.000000    0.000000
           2
 Time =    4420.0000000000000     
Ne    0.000000    0.000000    4.233416
Ne    0.000000    0.000000    0.000000
           2
 Time =    4421.0000000000000     
Ne    0.000000    0.000000    4.233416
Ne    0.000000    0.000000    0.000000
           2
 Time =    4422.0000000000000     
Ne    0.000000    0.000000    4.233416
Ne    0.000000    0.000000    0.000000
           2
 Time =    4423.0000000000000     
Ne    0.000000    0.000000    4.233416
Ne    0.000000    0.000000    0.000000
           2
 Time =    4424.0000000000000     
Ne    0.000000    0.000000    4.233416
Ne    0.000000    0.000000    0.000000
           2
 Time =    4425.0000000000000     
Ne    0.000000    0.000000    4.233416
Ne    0.000000    0.000000    0.000000
           2
 Time =    4426.0000000000000     
Ne    0.000000    0.000000    4.233416
Ne    0.000000    0.000000    0.000000
           2
 Time =    4427.0000000000000     
Ne    0.000000    0.000000    4.233416
Ne    0.000000    0.000000    0.000000
           2
 Time =    4428.0000000000000     
Ne    0.000000    0.000000    4.233416
Ne    0.000000    0.000000    0.000000
           2
 Time =    4429.0000000000000     
Ne    0.000000    0.000000    4.233416
Ne    0.000000    0.000000    0.000000
           2
 Time =    4430.0000000000000     
Ne    0.000000    0.000000    4.233416
Ne    0.000000    0.000000    0.000000
           2
 Time =    4431.0000000000000     
Ne    0.000000    0.000000    4.233416
Ne    0.000000    0.000000    0.000000
           2
 Time =    4432.0000000000000     
Ne    0.000000    0.000000    4.233416
Ne    0.000000    0.000000    0.000000
           2
 Time =    4433.0000000000000     
Ne    0.000000    0.000000    4.233416
Ne    0.000000    0.000000    0.000000
           2
 Time =    4434.0000000000000     
Ne    0.000000    0.000000    4.233416
Ne    0.000000    0.000000    0.000000
           2
 Time =    4435.0000000000000     
Ne    0.000000    0.000000    4.233416
Ne    0.000000    0.000000    0.000000
           2
 Time =    4436.0000000000000     
Ne    0.000000    0.000000    4.233416
Ne    0.000000    0.000000    0.000000
           2
 Time =    4437.0000000000000     
Ne    0.000000    0.000000    4.233416
Ne    0.000000    0.000000    0.000000
           2
 Time =    4438.0000000000000     
Ne    0.000000    0.000000    4.233416
Ne    0.000000    0.000000    0.000000
           2
 Time =    4439.0000000000000     
Ne    0.000000    0.000000    4.233416
Ne    0.000000    0.000000    0.000000
           2
 Time =    4440.0000000000000     
Ne    0.000000    0.000000    4.233416
Ne    0.000000    0.000000    0.000000
           2
 Time =    4441.0000000000000     
Ne    0.000000    0.000000    4.233416
Ne    0.000000    0.000000    0.000000
           2
 Time =    4442.0000000000000     
Ne    0.000000    0.000000    4.233416
Ne    0.000000    0.000000    0.000000
           2
 Time =    4443.0000000000000     
Ne    0.000000    0.000000    4.233416
Ne    0.000000    0.000000    0.000000
           2
 Time =    4444.0000000000000     
Ne    0.000000    0.000000    4.233416
Ne    0.000000    0.000000    0.000000
           2
 Time =    4445.0000000000000     
Ne    0.000000    0.000000    4.233416
Ne    0.000000    0.000000    0.000000
           2
 Time =    4446.0000000000000     
Ne    0.000000    0.000000    4.233416
Ne    0.000000    0.000000    0.000000
           2
 Time =    4447.0000000000000     
Ne    0.000000    0.000000    4.233416
Ne    0.000000    0.000000    0.000000
           2
 Time =    4448.0000000000000     
Ne    0.000000    0.000000    4.233416
Ne    0.000000    0.000000    0.000000
           2
 Time =    4449.0000000000000     
Ne    0.000000    0.000000    4.233416
Ne    0.000000    0.000000    0.000000
           2
 Time =    4450.0000000000000     
Ne    0.000000    0.000000    4.233416
Ne    0.000000    0.000000    0.000000
           2
 Time =    4451.0000000000000     
Ne    0.000000    0.000000    4.233416
Ne    0.000000    0.000000    0.000000
           2
 Time =    4452.0000000000000     
Ne    0.000000    0.000000    4.233416
Ne    0.000000    0.000000    0.000000
           2
 Time =    4453.0000000000000     
Ne    0.000000    0.000000    4.233416
Ne    0.000000    0.000000    0.000000
           2
 Time =    4454.0000000000000     
Ne    0.000000    0.000000    4.233416
Ne    0.000000    0.000000    0.000000
           2
 Time =    4455.0000000000000     
Ne    0.000000    0.000000    4.233416
Ne    0.000000    0.000000    0.000000
           2
 Time =    4456.0000000000000     
Ne    0.000000    0.000000    4.233416
Ne    0.000000    0.000000    0.000000
           2
 Time =    4457.0000000000000     
Ne    0.000000    0.000000    4.233416
Ne    0.000000    0.000000    0.000000
           2
 Time =    4458.0000000000000     
Ne    0.000000    0.000000    4.233416
Ne    0.000000    0.000000    0.000000
           2
 Time =    4459.0000000000000     
Ne    0.000000    0.000000    4.233416
Ne    0.000000    0.000000    0.000000
           2
 Time =    4460.0000000000000     
Ne    0.000000    0.000000    4.233416
Ne    0.000000    0.000000    0.000000
           2
 Time =    4461.0000000000000     
Ne    0.000000    0.000000    4.233416
Ne    0.000000    0.000000    0.000000
           2
 Time =    4462.0000000000000     
Ne    0.000000    0.000000    4.233416
Ne    0.000000    0.000000    0.000000
           2
 Time =    4463.0000000000000     
Ne    0.000000    0.000000    4.233416
Ne    0.000000    0.000000    0.000000
           2
 Time =    4464.0000000000000     
Ne    0.000000    0.000000    4.233416
Ne    0.000000    0.000000    0.000000
           2
 Time =    4465.0000000000000     
Ne    0.000000    0.000000    4.233416
Ne    0.000000    0.000000    0.000000
           2
 Time =    4466.0000000000000     
Ne    0.000000    0.000000    4.233416
Ne    0.000000    0.000000    0.000000
           2
 Time =    4467.0000000000000     
Ne    0.000000    0.000000    4.233416
Ne    0.000000    0.000000    0.000000
           2
 Time =    4468.0000000000000     
Ne    0.000000    0.000000    4.233416
Ne    0.000000    0.000000    0.000000
           2
 Time =    4469.0000000000000     
Ne    0.000000    0.000000    4.233416
Ne    0.000000    0.000000    0.000000
           2
 Time =    4470.0000000000000     
Ne    0.000000    0.000000    4.233416
Ne    0.000000    0.000000    0.000000
           2
 Time =    4471.0000000000000     
Ne    0.000000    0.000000    4.233416
Ne    0.000000    0.000000    0.000000
           2
 Time =    4472.0000000000000     
Ne    0.000000    0.000000    4.233416
Ne    0.000000    0.000000    0.000000
           2
 Time =    4473.0000000000000     
Ne    0.000000    0.000000    4.233416
Ne    0.000000    0.000000    0.000000
           2
 Time =    4474.0000000000000     
Ne    0.000000    0.000000    4.233416
Ne    0.000000    0.000000    0.000000
           2
 Time =    4475.0000000000000     
Ne    0.000000    0.000000    4.233416
Ne    0.000000    0.000000    0.000000
           2
 Time =    4476.0000000000000     
Ne    0.000000    0.000000    4.233416
Ne    0.000000    0.000000    0.000000
           2
 Time =    4477.0000000000000     
Ne    0.000000    0.000000    4.233416
Ne    0.000000    0.000000    0.000000
           2
 Time =    4478.0000000000000     
Ne    0.000000    0.000000    4.233416
Ne    0.000000    0.000000    0.000000
           2
 Time =    4479.0000000000000     
Ne    0.000000    0.000000    4.233416
Ne    0.000000    0.000000    0.000000
           2
 Time =    4480.0000000000000     
Ne    0.000000    0.000000    4.233416
Ne    0.000000    0.000000    0.000000
           2
 Time =    4481.0000000000000     
Ne    0.000000    0.000000    4.233416
Ne    0.000000    0.000000    0.000000
           2
 Time =    4482.0000000000000     
Ne    0.000000    0.000000    4.233416
Ne    0.000000    0.000000    0.000000
           2
 Time =    4483.0000000000000     
Ne    0.000000    0.000000    4.233416
Ne    0.000000    0.000000    0.000000
           2
 Time =    4484.0000000000000     
Ne    0.000000    0.000000    4.233416
Ne    0.000000    0.000000    0.000000
           2
 Time =    4485.0000000000000     
Ne    0.000000    0.000000    4.233416
Ne    0.000000    0.000000    0.000000
           2
 Time =    4486.0000000000000     
Ne    0.000000    0.000000    4.233416
Ne    0.000000    0.000000    0.000000
           2
 Time =    4487.0000000000000     
Ne    0.000000    0.000000    4.233416
Ne    0.000000    0.000000    0.000000
           2
 Time =    4488.0000000000000     
Ne    0.000000    0.000000    4.233416
Ne    0.000000    0.000000    0.000000
           2
 Time =    4489.0000000000000     
Ne    0.000000    0.000000    4.233416
Ne    0.000000    0.000000    0.000000
           2
 Time =    4490.0000000000000     
Ne    0.000000    0.000000    4.233416
Ne    0.000000    0.000000    0.000000
           2
 Time =    4491.0000000000000     
Ne    0.000000    0.000000    4.233416
Ne    0.000000    0.000000    0.000000
           2
 Time =    4492.0000000000000     
Ne    0.000000    0.000000    4.233416
Ne    0.000000    0.000000    0.000000
           2
 Time =    4493.0000000000000     
Ne    0.000000    0.000000    4.233416
Ne    0.000000    0.000000    0.000000
           2
 Time =    4494.0000000000000     
Ne    0.000000    0.000000    4.233416
Ne    0.000000    0.000000    0.000000
           2
 Time =    4495.0000000000000     
Ne    0.000000    0.000000    4.233416
Ne    0.000000    0.000000    0.000000
           2
 Time =    4496.0000000000000     
Ne    0.000000    0.000000    4.233416
Ne    0.000000    0.000000    0.000000
           2
 Time =    4497.0000000000000     
Ne    0.000000    0.000000    4.233416
Ne    0.000000    0.000000    0.000000
           2
 Time =    4498.0000000000000     
Ne    0.000000    0.000000    4.233416
Ne    0.000000    0.000000    0.000000
           2
 Time =    4499.0000000000000     
Ne    0.000000    0.000000    4.233416
Ne    0.000000    0.000000    0.000000
           2
 Time =    4500.0000000000000     
Ne    0.000000    0.000000    4.233416
Ne    0.000000    0.000000    0.000000
           2
 Time =    4501.0000000000000     
Ne    0.000000    0.000000    4.233416
Ne    0.000000    0.000000    0.000000
           2
 Time =    4502.0000000000000     
Ne    0.000000    0.000000    4.233416
Ne    0.000000    0.000000    0.000000
           2
 Time =    4503.0000000000000     
Ne    0.000000    0.000000    4.233416
Ne    0.000000    0.000000    0.000000
           2
 Time =    4504.0000000000000     
Ne    0.000000    0.000000    4.233416
Ne    0.000000    0.000000    0.000000
           2
 Time =    4505.0000000000000     
Ne    0.000000    0.000000    4.233416
Ne    0.000000    0.000000    0.000000
           2
 Time =    4506.0000000000000     
Ne    0.000000    0.000000    4.233416
Ne    0.000000    0.000000    0.000000
           2
 Time =    4507.0000000000000     
Ne    0.000000    0.000000    4.233416
Ne    0.000000    0.000000    0.000000
           2
 Time =    4508.0000000000000     
Ne    0.000000    0.000000    4.233416
Ne    0.000000    0.000000    0.000000
           2
 Time =    4509.0000000000000     
Ne    0.000000    0.000000    4.233416
Ne    0.000000    0.000000    0.000000
           2
 Time =    4510.0000000000000     
Ne    0.000000    0.000000    4.233416
Ne    0.000000    0.000000    0.000000
           2
 Time =    4511.0000000000000     
Ne    0.000000    0.000000    4.233416
Ne    0.000000    0.000000    0.000000
           2
 Time =    4512.0000000000000     
Ne    0.000000    0.000000    4.233416
Ne    0.000000    0.000000    0.000000
           2
 Time =    4513.0000000000000     
Ne    0.000000    0.000000    4.233416
Ne    0.000000    0.000000    0.000000
           2
 Time =    4514.0000000000000     
Ne    0.000000    0.000000    4.233416
Ne    0.000000    0.000000    0.000000
           2
 Time =    4515.0000000000000     
Ne    0.000000    0.000000    4.233416
Ne    0.000000    0.000000    0.000000
           2
 Time =    4516.0000000000000     
Ne    0.000000    0.000000    4.233416
Ne    0.000000    0.000000    0.000000
           2
 Time =    4517.0000000000000     
Ne    0.000000    0.000000    4.233416
Ne    0.000000    0.000000    0.000000
           2
 Time =    4518.0000000000000     
Ne    0.000000    0.000000    4.233416
Ne    0.000000    0.000000    0.000000
           2
 Time =    4519.0000000000000     
Ne    0.000000    0.000000    4.233416
Ne    0.000000    0.000000    0.000000
           2
 Time =    4520.0000000000000     
Ne    0.000000    0.000000    4.233416
Ne    0.000000    0.000000    0.000000
           2
 Time =    4521.0000000000000     
Ne    0.000000    0.000000    4.233416
Ne    0.000000    0.000000    0.000000
           2
 Time =    4522.0000000000000     
Ne    0.000000    0.000000    4.233416
Ne    0.000000    0.000000    0.000000
           2
 Time =    4523.0000000000000     
Ne    0.000000    0.000000    4.233416
Ne    0.000000    0.000000    0.000000
           2
 Time =    4524.0000000000000     
Ne    0.000000    0.000000    4.233416
Ne    0.000000    0.000000    0.000000
           2
 Time =    4525.0000000000000     
Ne    0.000000    0.000000    4.233416
Ne    0.000000    0.000000    0.000000
           2
 Time =    4526.0000000000000     
Ne    0.000000    0.000000    4.233416
Ne    0.000000    0.000000    0.000000
           2
 Time =    4527.0000000000000     
Ne    0.000000    0.000000    4.233416
Ne    0.000000    0.000000    0.000000
           2
 Time =    4528.0000000000000     
Ne    0.000000    0.000000    4.233416
Ne    0.000000    0.000000    0.000000
           2
 Time =    4529.0000000000000     
Ne    0.000000    0.000000    4.233416
Ne    0.000000    0.000000    0.000000
           2
 Time =    4530.0000000000000     
Ne    0.000000    0.000000    4.233416
Ne    0.000000    0.000000    0.000000
           2
 Time =    4531.0000000000000     
Ne    0.000000    0.000000    4.233416
Ne    0.000000    0.000000    0.000000
           2
 Time =    4532.0000000000000     
Ne    0.000000    0.000000    4.233416
Ne    0.000000    0.000000    0.000000
           2
 Time =    4533.0000000000000     
Ne    0.000000    0.000000    4.233416
Ne    0.000000    0.000000    0.000000
           2
 Time =    4534.0000000000000     
Ne    0.000000    0.000000    4.233416
Ne    0.000000    0.000000    0.000000
           2
 Time =    4535.0000000000000     
Ne    0.000000    0.000000    4.233416
Ne    0.000000    0.000000    0.000000
           2
 Time =    4536.0000000000000     
Ne    0.000000    0.000000    4.233416
Ne    0.000000    0.000000    0.000000
           2
 Time =    4537.0000000000000     
Ne    0.000000    0.000000    4.233416
Ne    0.000000    0.000000    0.000000
           2
 Time =    4538.0000000000000     
Ne    0.000000    0.000000    4.233416
Ne    0.000000    0.000000    0.000000
           2
 Time =    4539.0000000000000     
Ne    0.000000    0.000000    4.233416
Ne    0.000000    0.000000    0.000000
           2
 Time =    4540.0000000000000     
Ne    0.000000    0.000000    4.233416
Ne    0.000000    0.000000    0.000000
           2
 Time =    4541.0000000000000     
Ne    0.000000    0.000000    4.233416
Ne    0.000000    0.000000    0.000000
           2
 Time =    4542.0000000000000     
Ne    0.000000    0.000000    4.233416
Ne    0.000000    0.000000    0.000000
           2
 Time =    4543.0000000000000     
Ne    0.000000    0.000000    4.233416
Ne    0.000000    0.000000    0.000000
           2
 Time =    4544.0000000000000     
Ne    0.000000    0.000000    4.233416
Ne    0.000000    0.000000    0.000000
           2
 Time =    4545.0000000000000     
Ne    0.000000    0.000000    4.233416
Ne    0.000000    0.000000    0.000000
           2
 Time =    4546.0000000000000     
Ne    0.000000    0.000000    4.233416
Ne    0.000000    0.000000    0.000000
           2
 Time =    4547.0000000000000     
Ne    0.000000    0.000000    4.233416
Ne    0.000000    0.000000    0.000000
           2
 Time =    4548.0000000000000     
Ne    0.000000    0.000000    4.233416
Ne    0.000000    0.000000    0.000000
           2
 Time =    4549.0000000000000     
Ne    0.000000    0.000000    4.233416
Ne    0.000000    0.000000    0.000000
           2
 Time =    4550.0000000000000     
Ne    0.000000    0.000000    4.233416
Ne    0.000000    0.000000    0.000000
           2
 Time =    4551.0000000000000     
Ne    0.000000    0.000000    4.233416
Ne    0.000000    0.000000    0.000000
           2
 Time =    4552.0000000000000     
Ne    0.000000    0.000000    4.233416
Ne    0.000000    0.000000    0.000000
           2
 Time =    4553.0000000000000     
Ne    0.000000    0.000000    4.233416
Ne    0.000000    0.000000    0.000000
           2
 Time =    4554.0000000000000     
Ne    0.000000    0.000000    4.233416
Ne    0.000000    0.000000    0.000000
           2
 Time =    4555.0000000000000     
Ne    0.000000    0.000000    4.233416
Ne    0.000000    0.000000    0.000000
           2
 Time =    4556.0000000000000     
Ne    0.000000    0.000000    4.233416
Ne    0.000000    0.000000    0.000000
           2
 Time =    4557.0000000000000     
Ne    0.000000    0.000000    4.233416
Ne    0.000000    0.000000    0.000000
           2
 Time =    4558.0000000000000     
Ne    0.000000    0.000000    4.233416
Ne    0.000000    0.000000    0.000000
           2
 Time =    4559.0000000000000     
Ne    0.000000    0.000000    4.233416
Ne    0.000000    0.000000    0.000000
           2
 Time =    4560.0000000000000     
Ne    0.000000    0.000000    4.233416
Ne    0.000000    0.000000    0.000000
           2
 Time =    4561.0000000000000     
Ne    0.000000    0.000000    4.233416
Ne    0.000000    0.000000    0.000000
           2
 Time =    4562.0000000000000     
Ne    0.000000    0.000000    4.233416
Ne    0.000000    0.000000    0.000000
           2
 Time =    4563.0000000000000     
Ne    0.000000    0.000000    4.233416
Ne    0.000000    0.000000    0.000000
           2
 Time =    4564.0000000000000     
Ne    0.000000    0.000000    4.233416
Ne    0.000000    0.000000    0.000000
           2
 Time =    4565.0000000000000     
Ne    0.000000    0.000000    4.233416
Ne    0.000000    0.000000    0.000000
           2
 Time =    4566.0000000000000     
Ne    0.000000    0.000000    4.233416
Ne    0.000000    0.000000    0.000000
           2
 Time =    4567.0000000000000     
Ne    0.000000    0.000000    4.233416
Ne    0.000000    0.000000    0.000000
           2
 Time =    4568.0000000000000     
Ne    0.000000    0.000000    4.233416
Ne    0.000000    0.000000    0.000000
           2
 Time =    4569.0000000000000     
Ne    0.000000    0.000000    4.233416
Ne    0.000000    0.000000    0.000000
           2
 Time =    4570.0000000000000     
Ne    0.000000    0.000000    4.233416
Ne    0.000000    0.000000    0.000000
           2
 Time =    4571.0000000000000     
Ne    0.000000    0.000000    4.233416
Ne    0.000000    0.000000    0.000000
           2
 Time =    4572.0000000000000     
Ne    0.000000    0.000000    4.233416
Ne    0.000000    0.000000    0.000000
           2
 Time =    4573.0000000000000     
Ne    0.000000    0.000000    4.233416
Ne    0.000000    0.000000    0.000000
           2
 Time =    4574.0000000000000     
Ne    0.000000    0.000000    4.233416
Ne    0.000000    0.000000    0.000000
           2
 Time =    4575.0000000000000     
Ne    0.000000    0.000000    4.233416
Ne    0.000000    0.000000    0.000000
           2
 Time =    4576.0000000000000     
Ne    0.000000    0.000000    4.233416
Ne    0.000000    0.000000    0.000000
           2
 Time =    4577.0000000000000     
Ne    0.000000    0.000000    4.233416
Ne    0.000000    0.000000    0.000000
           2
 Time =    4578.0000000000000     
Ne    0.000000    0.000000    4.233416
Ne    0.000000    0.000000    0.000000
           2
 Time =    4579.0000000000000     
Ne    0.000000    0.000000    4.233416
Ne    0.000000    0.000000    0.000000
           2
 Time =    4580.0000000000000     
Ne    0.000000    0.000000    4.233416
Ne    0.000000    0.000000    0.000000
           2
 Time =    4581.0000000000000     
Ne    0.000000    0.000000    4.233416
Ne    0.000000    0.000000    0.000000
           2
 Time =    4582.0000000000000     
Ne    0.000000    0.000000    4.233416
Ne    0.000000    0.000000    0.000000
           2
 Time =    4583.0000000000000     
Ne    0.000000    0.000000    4.233416
Ne    0.000000    0.000000    0.000000
           2
 Time =    4584.0000000000000     
Ne    0.000000    0.000000    4.233416
Ne    0.000000    0.000000    0.000000
           2
 Time =    4585.0000000000000     
Ne    0.000000    0.000000    4.233416
Ne    0.000000    0.000000    0.000000
           2
 Time =    4586.0000000000000     
Ne    0.000000    0.000000    4.233416
Ne    0.000000    0.000000    0.000000
           2
 Time =    4587.0000000000000     
Ne    0.000000    0.000000    4.233416
Ne    0.000000    0.000000    0.000000
           2
 Time =    4588.0000000000000     
Ne    0.000000    0.000000    4.233416
Ne    0.000000    0.000000    0.000000
           2
 Time =    4589.0000000000000     
Ne    0.000000    0.000000    4.233416
Ne    0.000000    0.000000    0.000000
           2
 Time =    4590.0000000000000     
Ne    0.000000    0.000000    4.233416
Ne    0.000000    0.000000    0.000000
           2
 Time =    4591.0000000000000     
Ne    0.000000    0.000000    4.233416
Ne    0.000000    0.000000    0.000000
           2
 Time =    4592.0000000000000     
Ne    0.000000    0.000000    4.233416
Ne    0.000000    0.000000    0.000000
           2
 Time =    4593.0000000000000     
Ne    0.000000    0.000000    4.233416
Ne    0.000000    0.000000    0.000000
           2
 Time =    4594.0000000000000     
Ne    0.000000    0.000000    4.233416
Ne    0.000000    0.000000    0.000000
           2
 Time =    4595.0000000000000     
Ne    0.000000    0.000000    4.233416
Ne    0.000000    0.000000    0.000000
           2
 Time =    4596.0000000000000     
Ne    0.000000    0.000000    4.233416
Ne    0.000000    0.000000    0.000000
           2
 Time =    4597.0000000000000     
Ne    0.000000    0.000000    4.233416
Ne    0.000000    0.000000    0.000000
           2
 Time =    4598.0000000000000     
Ne    0.000000    0.000000    4.233416
Ne    0.000000    0.000000    0.000000
           2
 Time =    4599.0000000000000     
Ne    0.000000    0.000000    4.233416
Ne    0.000000    0.000000    0.000000
           2
 Time =    4600.0000000000000     
Ne    0.000000    0.000000    4.233416
Ne    0.000000    0.000000    0.000000
           2
 Time =    4601.0000000000000     
Ne    0.000000    0.000000    4.233416
Ne    0.000000    0.000000    0.000000
           2
 Time =    4602.0000000000000     
Ne    0.000000    0.000000    4.233416
Ne    0.000000    0.000000    0.000000
           2
 Time =    4603.0000000000000     
Ne    0.000000    0.000000    4.233416
Ne    0.000000    0.000000    0.000000
           2
 Time =    4604.0000000000000     
Ne    0.000000    0.000000    4.233416
Ne    0.000000    0.000000    0.000000
           2
 Time =    4605.0000000000000     
Ne    0.000000    0.000000    4.233416
Ne    0.000000    0.000000    0.000000
           2
 Time =    4606.0000000000000     
Ne    0.000000    0.000000    4.233416
Ne    0.000000    0.000000    0.000000
           2
 Time =    4607.0000000000000     
Ne    0.000000    0.000000    4.233416
Ne    0.000000    0.000000    0.000000
           2
 Time =    4608.0000000000000     
Ne    0.000000    0.000000    4.233416
Ne    0.000000    0.000000    0.000000
           2
 Time =    4609.0000000000000     
Ne    0.000000    0.000000    4.233416
Ne    0.000000    0.000000    0.000000
           2
 Time =    4610.0000000000000     
Ne    0.000000    0.000000    4.233416
Ne    0.000000    0.000000    0.000000
           2
 Time =    4611.0000000000000     
Ne    0.000000    0.000000    4.233416
Ne    0.000000    0.000000    0.000000
           2
 Time =    4612.0000000000000     
Ne    0.000000    0.000000    4.233416
Ne    0.000000    0.000000    0.000000
           2
 Time =    4613.0000000000000     
Ne    0.000000    0.000000    4.233416
Ne    0.000000    0.000000    0.000000
           2
 Time =    4614.0000000000000     
Ne    0.000000    0.000000    4.233416
Ne    0.000000    0.000000    0.000000
           2
 Time =    4615.0000000000000     
Ne    0.000000    0.000000    4.233416
Ne    0.000000    0.000000    0.000000
           2
 Time =    4616.0000000000000     
Ne    0.000000    0.000000    4.233416
Ne    0.000000    0.000000    0.000000
           2
 Time =    4617.0000000000000     
Ne    0.000000    0.000000    4.233416
Ne    0.000000    0.000000    0.000000
           2
 Time =    4618.0000000000000     
Ne    0.000000    0.000000    4.233416
Ne    0.000000    0.000000    0.000000
           2
 Time =    4619.0000000000000     
Ne    0.000000    0.000000    4.233416
Ne    0.000000    0.000000    0.000000
           2
 Time =    4620.0000000000000     
Ne    0.000000    0.000000    4.233416
Ne    0.000000    0.000000    0.000000
           2
 Time =    4621.0000000000000     
Ne    0.000000    0.000000    4.233416
Ne    0.000000    0.000000    0.000000
           2
 Time =    4622.0000000000000     
Ne    0.000000    0.000000    4.233416
Ne    0.000000    0.000000    0.000000
           2
 Time =    4623.0000000000000     
Ne    0.000000    0.000000    4.233416
Ne    0.000000    0.000000    0.000000
           2
 Time =    4624.0000000000000     
Ne    0.000000    0.000000    4.233416
Ne    0.000000    0.000000    0.000000
           2
 Time =    4625.0000000000000     
Ne    0.000000    0.000000    4.233416
Ne    0.000000    0.000000    0.000000
           2
 Time =    4626.0000000000000     
Ne    0.000000    0.000000    4.233416
Ne    0.000000    0.000000    0.000000
           2
 Time =    4627.0000000000000     
Ne    0.000000    0.000000    4.233416
Ne    0.000000    0.000000    0.000000
           2
 Time =    4628.0000000000000     
Ne    0.000000    0.000000    4.233416
Ne    0.000000    0.000000    0.000000
           2
 Time =    4629.0000000000000     
Ne    0.000000    0.000000    4.233416
Ne    0.000000    0.000000    0.000000
           2
 Time =    4630.0000000000000     
Ne    0.000000    0.000000    4.233416
Ne    0.000000    0.000000    0.000000
           2
 Time =    4631.0000000000000     
Ne    0.000000    0.000000    4.233416
Ne    0.000000    0.000000    0.000000
           2
 Time =    4632.0000000000000     
Ne    0.000000    0.000000    4.233416
Ne    0.000000    0.000000    0.000000
           2
 Time =    4633.0000000000000     
Ne    0.000000    0.000000    4.233416
Ne    0.000000    0.000000    0.000000
           2
 Time =    4634.0000000000000     
Ne    0.000000    0.000000    4.233416
Ne    0.000000    0.000000    0.000000
           2
 Time =    4635.0000000000000     
Ne    0.000000    0.000000    4.233416
Ne    0.000000    0.000000    0.000000
           2
 Time =    4636.0000000000000     
Ne    0.000000    0.000000    4.233416
Ne    0.000000    0.000000    0.000000
           2
 Time =    4637.0000000000000     
Ne    0.000000    0.000000    4.233416
Ne    0.000000    0.000000    0.000000
           2
 Time =    4638.0000000000000     
Ne    0.000000    0.000000    4.233416
Ne    0.000000    0.000000    0.000000
           2
 Time =    4639.0000000000000     
Ne    0.000000    0.000000    4.233416
Ne    0.000000    0.000000    0.000000
           2
 Time =    4640.0000000000000     
Ne    0.000000    0.000000    4.233416
Ne    0.000000    0.000000    0.000000
           2
 Time =    4641.0000000000000     
Ne    0.000000    0.000000    4.233416
Ne    0.000000    0.000000    0.000000
           2
 Time =    4642.0000000000000     
Ne    0.000000    0.000000    4.233416
Ne    0.000000    0.000000    0.000000
           2
 Time =    4643.0000000000000     
Ne    0.000000    0.000000    4.233416
Ne    0.000000    0.000000    0.000000
           2
 Time =    4644.0000000000000     
Ne    0.000000    0.000000    4.233416
Ne    0.000000    0.000000    0.000000
           2
 Time =    4645.0000000000000     
Ne    0.000000    0.000000    4.233416
Ne    0.000000    0.000000    0.000000
           2
 Time =    4646.0000000000000     
Ne    0.000000    0.000000    4.233416
Ne    0.000000    0.000000    0.000000
           2
 Time =    4647.0000000000000     
Ne    0.000000    0.000000    4.233416
Ne    0.000000    0.000000    0.000000
           2
 Time =    4648.0000000000000     
Ne    0.000000    0.000000    4.233416
Ne    0.000000    0.000000    0.000000
           2
 Time =    4649.0000000000000     
Ne    0.000000    0.000000    4.233416
Ne    0.000000    0.000000    0.000000
           2
 Time =    4650.0000000000000     
Ne    0.000000    0.000000    4.233416
Ne    0.000000    0.000000    0.000000
           2
 Time =    4651.0000000000000     
Ne    0.000000    0.000000    4.233416
Ne    0.000000    0.000000    0.000000
           2
 Time =    4652.0000000000000     
Ne    0.000000    0.000000    4.233416
Ne    0.000000    0.000000    0.000000
           2
 Time =    4653.0000000000000     
Ne    0.000000    0.000000    4.233416
Ne    0.000000    0.000000    0.000000
           2
 Time =    4654.0000000000000     
Ne    0.000000    0.000000    4.233416
Ne    0.000000    0.000000    0.000000
           2
 Time =    4655.0000000000000     
Ne    0.000000    0.000000    4.233416
Ne    0.000000    0.000000    0.000000
           2
 Time =    4656.0000000000000     
Ne    0.000000    0.000000    4.233416
Ne    0.000000    0.000000    0.000000
           2
 Time =    4657.0000000000000     
Ne    0.000000    0.000000    4.233416
Ne    0.000000    0.000000    0.000000
           2
 Time =    4658.0000000000000     
Ne    0.000000    0.000000    4.233416
Ne    0.000000    0.000000    0.000000
           2
 Time =    4659.0000000000000     
Ne    0.000000    0.000000    4.233416
Ne    0.000000    0.000000    0.000000
           2
 Time =    4660.0000000000000     
Ne    0.000000    0.000000    4.233416
Ne    0.000000    0.000000    0.000000
           2
 Time =    4661.0000000000000     
Ne    0.000000    0.000000    4.233416
Ne    0.000000    0.000000    0.000000
           2
 Time =    4662.0000000000000     
Ne    0.000000    0.000000    4.233416
Ne    0.000000    0.000000    0.000000
           2
 Time =    4663.0000000000000     
Ne    0.000000    0.000000    4.233416
Ne    0.000000    0.000000    0.000000
           2
 Time =    4664.0000000000000     
Ne    0.000000    0.000000    4.233416
Ne    0.000000    0.000000    0.000000
           2
 Time =    4665.0000000000000     
Ne    0.000000    0.000000    4.233416
Ne    0.000000    0.000000    0.000000
           2
 Time =    4666.0000000000000     
Ne    0.000000    0.000000    4.233416
Ne    0.000000    0.000000    0.000000
           2
 Time =    4667.0000000000000     
Ne    0.000000    0.000000    4.233416
Ne    0.000000    0.000000    0.000000
           2
 Time =    4668.0000000000000     
Ne    0.000000    0.000000    4.233416
Ne    0.000000    0.000000    0.000000
           2
 Time =    4669.0000000000000     
Ne    0.000000    0.000000    4.233416
Ne    0.000000    0.000000    0.000000
           2
 Time =    4670.0000000000000     
Ne    0.000000    0.000000    4.233416
Ne    0.000000    0.000000    0.000000
           2
 Time =    4671.0000000000000     
Ne    0.000000    0.000000    4.233416
Ne    0.000000    0.000000    0.000000
           2
 Time =    4672.0000000000000     
Ne    0.000000    0.000000    4.233416
Ne    0.000000    0.000000    0.000000
           2
 Time =    4673.0000000000000     
Ne    0.000000    0.000000    4.233416
Ne    0.000000    0.000000    0.000000
           2
 Time =    4674.0000000000000     
Ne    0.000000    0.000000    4.233416
Ne    0.000000    0.000000    0.000000
           2
 Time =    4675.0000000000000     
Ne    0.000000    0.000000    4.233416
Ne    0.000000    0.000000    0.000000
           2
 Time =    4676.0000000000000     
Ne    0.000000    0.000000    4.233416
Ne    0.000000    0.000000    0.000000
           2
 Time =    4677.0000000000000     
Ne    0.000000    0.000000    4.233416
Ne    0.000000    0.000000    0.000000
           2
 Time =    4678.0000000000000     
Ne    0.000000    0.000000    4.233416
Ne    0.000000    0.000000    0.000000
           2
 Time =    4679.0000000000000     
Ne    0.000000    0.000000    4.233416
Ne    0.000000    0.000000    0.000000
           2
 Time =    4680.0000000000000     
Ne    0.000000    0.000000    4.233416
Ne    0.000000    0.000000    0.000000
           2
 Time =    4681.0000000000000     
Ne    0.000000    0.000000    4.233416
Ne    0.000000    0.000000    0.000000
           2
 Time =    4682.0000000000000     
Ne    0.000000    0.000000    4.233416
Ne    0.000000    0.000000    0.000000
           2
 Time =    4683.0000000000000     
Ne    0.000000    0.000000    4.233416
Ne    0.000000    0.000000    0.000000
           2
 Time =    4684.0000000000000     
Ne    0.000000    0.000000    4.233416
Ne    0.000000    0.000000    0.000000
           2
 Time =    4685.0000000000000     
Ne    0.000000    0.000000    4.233416
Ne    0.000000    0.000000    0.000000
           2
 Time =    4686.0000000000000     
Ne    0.000000    0.000000    4.233416
Ne    0.000000    0.000000    0.000000
           2
 Time =    4687.0000000000000     
Ne    0.000000    0.000000    4.233416
Ne    0.000000    0.000000    0.000000
           2
 Time =    4688.0000000000000     
Ne    0.000000    0.000000    4.233416
Ne    0.000000    0.000000    0.000000
           2
 Time =    4689.0000000000000     
Ne    0.000000    0.000000    4.233416
Ne    0.000000    0.000000    0.000000
           2
 Time =    4690.0000000000000     
Ne    0.000000    0.000000    4.233416
Ne    0.000000    0.000000    0.000000
           2
 Time =    4691.0000000000000     
Ne    0.000000    0.000000    4.233416
Ne    0.000000    0.000000    0.000000
           2
 Time =    4692.0000000000000     
Ne    0.000000    0.000000    4.233416
Ne    0.000000    0.000000    0.000000
           2
 Time =    4693.0000000000000     
Ne    0.000000    0.000000    4.233416
Ne    0.000000    0.000000    0.000000
           2
 Time =    4694.0000000000000     
Ne    0.000000    0.000000    4.233416
Ne    0.000000    0.000000    0.000000
           2
 Time =    4695.0000000000000     
Ne    0.000000    0.000000    4.233416
Ne    0.000000    0.000000    0.000000
           2
 Time =    4696.0000000000000     
Ne    0.000000    0.000000    4.233416
Ne    0.000000    0.000000    0.000000
           2
 Time =    4697.0000000000000     
Ne    0.000000    0.000000    4.233416
Ne    0.000000    0.000000    0.000000
           2
 Time =    4698.0000000000000     
Ne    0.000000    0.000000    4.233416
Ne    0.000000    0.000000    0.000000
           2
 Time =    4699.0000000000000     
Ne    0.000000    0.000000    4.233416
Ne    0.000000    0.000000    0.000000
           2
 Time =    4700.0000000000000     
Ne    0.000000    0.000000    4.233416
Ne    0.000000    0.000000    0.000000
           2
 Time =    4701.0000000000000     
Ne    0.000000    0.000000    4.233416
Ne    0.000000    0.000000    0.000000
           2
 Time =    4702.0000000000000     
Ne    0.000000    0.000000    4.233416
Ne    0.000000    0.000000    0.000000
           2
 Time =    4703.0000000000000     
Ne    0.000000    0.000000    4.233416
Ne    0.000000    0.000000    0.000000
           2
 Time =    4704.0000000000000     
Ne    0.000000    0.000000    4.233416
Ne    0.000000    0.000000    0.000000
           2
 Time =    4705.0000000000000     
Ne    0.000000    0.000000    4.233416
Ne    0.000000    0.000000    0.000000
           2
 Time =    4706.0000000000000     
Ne    0.000000    0.000000    4.233416
Ne    0.000000    0.000000    0.000000
           2
 Time =    4707.0000000000000     
Ne    0.000000    0.000000    4.233416
Ne    0.000000    0.000000    0.000000
           2
 Time =    4708.0000000000000     
Ne    0.000000    0.000000    4.233416
Ne    0.000000    0.000000    0.000000
           2
 Time =    4709.0000000000000     
Ne    0.000000    0.000000    4.233416
Ne    0.000000    0.000000    0.000000
           2
 Time =    4710.0000000000000     
Ne    0.000000    0.000000    4.233416
Ne    0.000000    0.000000    0.000000
           2
 Time =    4711.0000000000000     
Ne    0.000000    0.000000    4.233416
Ne    0.000000    0.000000    0.000000
           2
 Time =    4712.0000000000000     
Ne    0.000000    0.000000    4.233416
Ne    0.000000    0.000000    0.000000
           2
 Time =    4713.0000000000000     
Ne    0.000000    0.000000    4.233416
Ne    0.000000    0.000000    0.000000
           2
 Time =    4714.0000000000000     
Ne    0.000000    0.000000    4.233416
Ne    0.000000    0.000000    0.000000
           2
 Time =    4715.0000000000000     
Ne    0.000000    0.000000    4.233416
Ne    0.000000    0.000000    0.000000
           2
 Time =    4716.0000000000000     
Ne    0.000000    0.000000    4.233416
Ne    0.000000    0.000000    0.000000
           2
 Time =    4717.0000000000000     
Ne    0.000000    0.000000    4.233416
Ne    0.000000    0.000000    0.000000
           2
 Time =    4718.0000000000000     
Ne    0.000000    0.000000    4.233416
Ne    0.000000    0.000000    0.000000
           2
 Time =    4719.0000000000000     
Ne    0.000000    0.000000    4.233416
Ne    0.000000    0.000000    0.000000
           2
 Time =    4720.0000000000000     
Ne    0.000000    0.000000    4.233416
Ne    0.000000    0.000000    0.000000
           2
 Time =    4721.0000000000000     
Ne    0.000000    0.000000    4.233416
Ne    0.000000    0.000000    0.000000
           2
 Time =    4722.0000000000000     
Ne    0.000000    0.000000    4.233416
Ne    0.000000    0.000000    0.000000
           2
 Time =    4723.0000000000000     
Ne    0.000000    0.000000    4.233416
Ne    0.000000    0.000000    0.000000
           2
 Time =    4724.0000000000000     
Ne    0.000000    0.000000    4.233416
Ne    0.000000    0.000000    0.000000
           2
 Time =    4725.0000000000000     
Ne    0.000000    0.000000    4.233416
Ne    0.000000    0.000000    0.000000
           2
 Time =    4726.0000000000000     
Ne    0.000000    0.000000    4.233416
Ne    0.000000    0.000000    0.000000
           2
 Time =    4727.0000000000000     
Ne    0.000000    0.000000    4.233416
Ne    0.000000    0.000000    0.000000
           2
 Time =    4728.0000000000000     
Ne    0.000000    0.000000    4.233416
Ne    0.000000    0.000000    0.000000
           2
 Time =    4729.0000000000000     
Ne    0.000000    0.000000    4.233416
Ne    0.000000    0.000000    0.000000
           2
 Time =    4730.0000000000000     
Ne    0.000000    0.000000    4.233416
Ne    0.000000    0.000000    0.000000
           2
 Time =    4731.0000000000000     
Ne    0.000000    0.000000    4.233416
Ne    0.000000    0.000000    0.000000
           2
 Time =    4732.0000000000000     
Ne    0.000000    0.000000    4.233416
Ne    0.000000    0.000000    0.000000
           2
 Time =    4733.0000000000000     
Ne    0.000000    0.000000    4.233416
Ne    0.000000    0.000000    0.000000
           2
 Time =    4734.0000000000000     
Ne    0.000000    0.000000    4.233416
Ne    0.000000    0.000000    0.000000
           2
 Time =    4735.0000000000000     
Ne    0.000000    0.000000    4.233416
Ne    0.000000    0.000000    0.000000
           2
 Time =    4736.0000000000000     
Ne    0.000000    0.000000    4.233416
Ne    0.000000    0.000000    0.000000
           2
 Time =    4737.0000000000000     
Ne    0.000000    0.000000    4.233416
Ne    0.000000    0.000000    0.000000
           2
 Time =    4738.0000000000000     
Ne    0.000000    0.000000    4.233416
Ne    0.000000    0.000000    0.000000
           2
 Time =    4739.0000000000000     
Ne    0.000000    0.000000    4.233416
Ne    0.000000    0.000000    0.000000
           2
 Time =    4740.0000000000000     
Ne    0.000000    0.000000    4.233416
Ne    0.000000    0.000000    0.000000
           2
 Time =    4741.0000000000000     
Ne    0.000000    0.000000    4.233416
Ne    0.000000    0.000000    0.000000
           2
 Time =    4742.0000000000000     
Ne    0.000000    0.000000    4.233416
Ne    0.000000    0.000000    0.000000
           2
 Time =    4743.0000000000000     
Ne    0.000000    0.000000    4.233416
Ne    0.000000    0.000000    0.000000
           2
 Time =    4744.0000000000000     
Ne    0.000000    0.000000    4.233416
Ne    0.000000    0.000000    0.000000
           2
 Time =    4745.0000000000000     
Ne    0.000000    0.000000    4.233416
Ne    0.000000    0.000000    0.000000
           2
 Time =    4746.0000000000000     
Ne    0.000000    0.000000    4.233416
Ne    0.000000    0.000000    0.000000
           2
 Time =    4747.0000000000000     
Ne    0.000000    0.000000    4.233416
Ne    0.000000    0.000000    0.000000
           2
 Time =    4748.0000000000000     
Ne    0.000000    0.000000    4.233416
Ne    0.000000    0.000000    0.000000
           2
 Time =    4749.0000000000000     
Ne    0.000000    0.000000    4.233416
Ne    0.000000    0.000000    0.000000
           2
 Time =    4750.0000000000000     
Ne    0.000000    0.000000    4.233416
Ne    0.000000    0.000000    0.000000
           2
 Time =    4751.0000000000000     
Ne    0.000000    0.000000    4.233416
Ne    0.000000    0.000000    0.000000
           2
 Time =    4752.0000000000000     
Ne    0.000000    0.000000    4.233416
Ne    0.000000    0.000000    0.000000
           2
 Time =    4753.0000000000000     
Ne    0.000000    0.000000    4.233416
Ne    0.000000    0.000000    0.000000
           2
 Time =    4754.0000000000000     
Ne    0.000000    0.000000    4.233416
Ne    0.000000    0.000000    0.000000
           2
 Time =    4755.0000000000000     
Ne    0.000000    0.000000    4.233416
Ne    0.000000    0.000000    0.000000
           2
 Time =    4756.0000000000000     
Ne    0.000000    0.000000    4.233416
Ne    0.000000    0.000000    0.000000
           2
 Time =    4757.0000000000000     
Ne    0.000000    0.000000    4.233416
Ne    0.000000    0.000000    0.000000
           2
 Time =    4758.0000000000000     
Ne    0.000000    0.000000    4.233416
Ne    0.000000    0.000000    0.000000
           2
 Time =    4759.0000000000000     
Ne    0.000000    0.000000    4.233416
Ne    0.000000    0.000000    0.000000
           2
 Time =    4760.0000000000000     
Ne    0.000000    0.000000    4.233416
Ne    0.000000    0.000000    0.000000
           2
 Time =    4761.0000000000000     
Ne    0.000000    0.000000    4.233416
Ne    0.000000    0.000000    0.000000
           2
 Time =    4762.0000000000000     
Ne    0.000000    0.000000    4.233416
Ne    0.000000    0.000000    0.000000
           2
 Time =    4763.0000000000000     
Ne    0.000000    0.000000    4.233416
Ne    0.000000    0.000000    0.000000
           2
 Time =    4764.0000000000000     
Ne    0.000000    0.000000    4.233416
Ne    0.000000    0.000000    0.000000
           2
 Time =    4765.0000000000000     
Ne    0.000000    0.000000    4.233416
Ne    0.000000    0.000000    0.000000
           2
 Time =    4766.0000000000000     
Ne    0.000000    0.000000    4.233416
Ne    0.000000    0.000000    0.000000
           2
 Time =    4767.0000000000000     
Ne    0.000000    0.000000    4.233416
Ne    0.000000    0.000000    0.000000
           2
 Time =    4768.0000000000000     
Ne    0.000000    0.000000    4.233416
Ne    0.000000    0.000000    0.000000
           2
 Time =    4769.0000000000000     
Ne    0.000000    0.000000    4.233416
Ne    0.000000    0.000000    0.000000
           2
 Time =    4770.0000000000000     
Ne    0.000000    0.000000    4.233416
Ne    0.000000    0.000000    0.000000
           2
 Time =    4771.0000000000000     
Ne    0.000000    0.000000    4.233416
Ne    0.000000    0.000000    0.000000
           2
 Time =    4772.0000000000000     
Ne    0.000000    0.000000    4.233416
Ne    0.000000    0.000000    0.000000
           2
 Time =    4773.0000000000000     
Ne    0.000000    0.000000    4.233416
Ne    0.000000    0.000000    0.000000
           2
 Time =    4774.0000000000000     
Ne    0.000000    0.000000    4.233416
Ne    0.000000    0.000000    0.000000
           2
 Time =    4775.0000000000000     
Ne    0.000000    0.000000    4.233416
Ne    0.000000    0.000000    0.000000
           2
 Time =    4776.0000000000000     
Ne    0.000000    0.000000    4.233416
Ne    0.000000    0.000000    0.000000
           2
 Time =    4777.0000000000000     
Ne    0.000000    0.000000    4.233416
Ne    0.000000    0.000000    0.000000
           2
 Time =    4778.0000000000000     
Ne    0.000000    0.000000    4.233416
Ne    0.000000    0.000000    0.000000
           2
 Time =    4779.0000000000000     
Ne    0.000000    0.000000    4.233416
Ne    0.000000    0.000000    0.000000
           2
 Time =    4780.0000000000000     
Ne    0.000000    0.000000    4.233416
Ne    0.000000    0.000000    0.000000
           2
 Time =    4781.0000000000000     
Ne    0.000000    0.000000    4.233416
Ne    0.000000    0.000000    0.000000
           2
 Time =    4782.0000000000000     
Ne    0.000000    0.000000    4.233416
Ne    0.000000    0.000000    0.000000
           2
 Time =    4783.0000000000000     
Ne    0.000000    0.000000    4.233416
Ne    0.000000    0.000000    0.000000
           2
 Time =    4784.0000000000000     
Ne    0.000000    0.000000    4.233416
Ne    0.000000    0.000000    0.000000
           2
 Time =    4785.0000000000000     
Ne    0.000000    0.000000    4.233416
Ne    0.000000    0.000000    0.000000
           2
 Time =    4786.0000000000000     
Ne    0.000000    0.000000    4.233416
Ne    0.000000    0.000000    0.000000
           2
 Time =    4787.0000000000000     
Ne    0.000000    0.000000    4.233416
Ne    0.000000    0.000000    0.000000
           2
 Time =    4788.0000000000000     
Ne    0.000000    0.000000    4.233416
Ne    0.000000    0.000000    0.000000
           2
 Time =    4789.0000000000000     
Ne    0.000000    0.000000    4.233416
Ne    0.000000    0.000000    0.000000
           2
 Time =    4790.0000000000000     
Ne    0.000000    0.000000    4.233416
Ne    0.000000    0.000000    0.000000
           2
 Time =    4791.0000000000000     
Ne    0.000000    0.000000    4.233416
Ne    0.000000    0.000000    0.000000
           2
 Time =    4792.0000000000000     
Ne    0.000000    0.000000    4.233416
Ne    0.000000    0.000000    0.000000
           2
 Time =    4793.0000000000000     
Ne    0.000000    0.000000    4.233416
Ne    0.000000    0.000000    0.000000
           2
 Time =    4794.0000000000000     
Ne    0.000000    0.000000    4.233416
Ne    0.000000    0.000000    0.000000
           2
 Time =    4795.0000000000000     
Ne    0.000000    0.000000    4.233416
Ne    0.000000    0.000000    0.000000
           2
 Time =    4796.0000000000000     
Ne    0.000000    0.000000    4.233416
Ne    0.000000    0.000000    0.000000
           2
 Time =    4797.0000000000000     
Ne    0.000000    0.000000    4.233416
Ne    0.000000    0.000000    0.000000
           2
 Time =    4798.0000000000000     
Ne    0.000000    0.000000    4.233416
Ne    0.000000    0.000000    0.000000
           2
 Time =    4799.0000000000000     
Ne    0.000000    0.000000    4.233416
Ne    0.000000    0.000000    0.000000
           2
 Time =    4800.0000000000000     
Ne    0.000000    0.000000    4.233416
Ne    0.000000    0.000000    0.000000
           2
 Time =    4801.0000000000000     
Ne    0.000000    0.000000    4.233416
Ne    0.000000    0.000000    0.000000
           2
 Time =    4802.0000000000000     
Ne    0.000000    0.000000    4.233416
Ne    0.000000    0.000000    0.000000
           2
 Time =    4803.0000000000000     
Ne    0.000000    0.000000    4.233416
Ne    0.000000    0.000000    0.000000
           2
 Time =    4804.0000000000000     
Ne    0.000000    0.000000    4.233416
Ne    0.000000    0.000000    0.000000
           2
 Time =    4805.0000000000000     
Ne    0.000000    0.000000    4.233416
Ne    0.000000    0.000000    0.000000
           2
 Time =    4806.0000000000000     
Ne    0.000000    0.000000    4.233416
Ne    0.000000    0.000000    0.000000
           2
 Time =    4807.0000000000000     
Ne    0.000000    0.000000    4.233416
Ne    0.000000    0.000000    0.000000
           2
 Time =    4808.0000000000000     
Ne    0.000000    0.000000    4.233416
Ne    0.000000    0.000000    0.000000
           2
 Time =    4809.0000000000000     
Ne    0.000000    0.000000    4.233416
Ne    0.000000    0.000000    0.000000
           2
 Time =    4810.0000000000000     
Ne    0.000000    0.000000    4.233416
Ne    0.000000    0.000000    0.000000
           2
 Time =    4811.0000000000000     
Ne    0.000000    0.000000    4.233416
Ne    0.000000    0.000000    0.000000
           2
 Time =    4812.0000000000000     
Ne    0.000000    0.000000    4.233416
Ne    0.000000    0.000000    0.000000
           2
 Time =    4813.0000000000000     
Ne    0.000000    0.000000    4.233416
Ne    0.000000    0.000000    0.000000
           2
 Time =    4814.0000000000000     
Ne    0.000000    0.000000    4.233416
Ne    0.000000    0.000000    0.000000
           2
 Time =    4815.0000000000000     
Ne    0.000000    0.000000    4.233416
Ne    0.000000    0.000000    0.000000
           2
 Time =    4816.0000000000000     
Ne    0.000000    0.000000    4.233416
Ne    0.000000    0.000000    0.000000
           2
 Time =    4817.0000000000000     
Ne    0.000000    0.000000    4.233416
Ne    0.000000    0.000000    0.000000
           2
 Time =    4818.0000000000000     
Ne    0.000000    0.000000    4.233416
Ne    0.000000    0.000000    0.000000
           2
 Time =    4819.0000000000000     
Ne    0.000000    0.000000    4.233416
Ne    0.000000    0.000000    0.000000
           2
 Time =    4820.0000000000000     
Ne    0.000000    0.000000    4.233416
Ne    0.000000    0.000000    0.000000
           2
 Time =    4821.0000000000000     
Ne    0.000000    0.000000    4.233416
Ne    0.000000    0.000000    0.000000
           2
 Time =    4822.0000000000000     
Ne    0.000000    0.000000    4.233416
Ne    0.000000    0.000000    0.000000
           2
 Time =    4823.0000000000000     
Ne    0.000000    0.000000    4.233416
Ne    0.000000    0.000000    0.000000
           2
 Time =    4824.0000000000000     
Ne    0.000000    0.000000    4.233416
Ne    0.000000    0.000000    0.000000
           2
 Time =    4825.0000000000000     
Ne    0.000000    0.000000    4.233416
Ne    0.000000    0.000000    0.000000
           2
 Time =    4826.0000000000000     
Ne    0.000000    0.000000    4.233416
Ne    0.000000    0.000000    0.000000
           2
 Time =    4827.0000000000000     
Ne    0.000000    0.000000    4.233416
Ne    0.000000    0.000000    0.000000
           2
 Time =    4828.0000000000000     
Ne    0.000000    0.000000    4.233416
Ne    0.000000    0.000000    0.000000
           2
 Time =    4829.0000000000000     
Ne    0.000000    0.000000    4.233416
Ne    0.000000    0.000000    0.000000
           2
 Time =    4830.0000000000000     
Ne    0.000000    0.000000    4.233416
Ne    0.000000    0.000000    0.000000
           2
 Time =    4831.0000000000000     
Ne    0.000000    0.000000    4.233416
Ne    0.000000    0.000000    0.000000
           2
 Time =    4832.0000000000000     
Ne    0.000000    0.000000    4.233416
Ne    0.000000    0.000000    0.000000
           2
 Time =    4833.0000000000000     
Ne    0.000000    0.000000    4.233416
Ne    0.000000    0.000000    0.000000
           2
 Time =    4834.0000000000000     
Ne    0.000000    0.000000    4.233416
Ne    0.000000    0.000000    0.000000
           2
 Time =    4835.0000000000000     
Ne    0.000000    0.000000    4.233416
Ne    0.000000    0.000000    0.000000
           2
 Time =    4836.0000000000000     
Ne    0.000000    0.000000    4.233416
Ne    0.000000    0.000000    0.000000
           2
 Time =    4837.0000000000000     
Ne    0.000000    0.000000    4.233416
Ne    0.000000    0.000000    0.000000
           2
 Time =    4838.0000000000000     
Ne    0.000000    0.000000    4.233416
Ne    0.000000    0.000000    0.000000
           2
 Time =    4839.0000000000000     
Ne    0.000000    0.000000    4.233416
Ne    0.000000    0.000000    0.000000
           2
 Time =    4840.0000000000000     
Ne    0.000000    0.000000    4.233416
Ne    0.000000    0.000000    0.000000
           2
 Time =    4841.0000000000000     
Ne    0.000000    0.000000    4.233416
Ne    0.000000    0.000000    0.000000
           2
 Time =    4842.0000000000000     
Ne    0.000000    0.000000    4.233416
Ne    0.000000    0.000000    0.000000
           2
 Time =    4843.0000000000000     
Ne    0.000000    0.000000    4.233416
Ne    0.000000    0.000000    0.000000
           2
 Time =    4844.0000000000000     
Ne    0.000000    0.000000    4.233416
Ne    0.000000    0.000000    0.000000
           2
 Time =    4845.0000000000000     
Ne    0.000000    0.000000    4.233416
Ne    0.000000    0.000000    0.000000
           2
 Time =    4846.0000000000000     
Ne    0.000000    0.000000    4.233416
Ne    0.000000    0.000000    0.000000
           2
 Time =    4847.0000000000000     
Ne    0.000000    0.000000    4.233416
Ne    0.000000    0.000000    0.000000
           2
 Time =    4848.0000000000000     
Ne    0.000000    0.000000    4.233416
Ne    0.000000    0.000000    0.000000
           2
 Time =    4849.0000000000000     
Ne    0.000000    0.000000    4.233416
Ne    0.000000    0.000000    0.000000
           2
 Time =    4850.0000000000000     
Ne    0.000000    0.000000    4.233416
Ne    0.000000    0.000000    0.000000
           2
 Time =    4851.0000000000000     
Ne    0.000000    0.000000    4.233416
Ne    0.000000    0.000000    0.000000
           2
 Time =    4852.0000000000000     
Ne    0.000000    0.000000    4.233416
Ne    0.000000    0.000000    0.000000
           2
 Time =    4853.0000000000000     
Ne    0.000000    0.000000    4.233416
Ne    0.000000    0.000000    0.000000
           2
 Time =    4854.0000000000000     
Ne    0.000000    0.000000    4.233416
Ne    0.000000    0.000000    0.000000
           2
 Time =    4855.0000000000000     
Ne    0.000000    0.000000    4.233416
Ne    0.000000    0.000000    0.000000
           2
 Time =    4856.0000000000000     
Ne    0.000000    0.000000    4.233416
Ne    0.000000    0.000000    0.000000
           2
 Time =    4857.0000000000000     
Ne    0.000000    0.000000    4.233416
Ne    0.000000    0.000000    0.000000
           2
 Time =    4858.0000000000000     
Ne    0.000000    0.000000    4.233416
Ne    0.000000    0.000000    0.000000
           2
 Time =    4859.0000000000000     
Ne    0.000000    0.000000    4.233416
Ne    0.000000    0.000000    0.000000
           2
 Time =    4860.0000000000000     
Ne    0.000000    0.000000    4.233416
Ne    0.000000    0.000000    0.000000
           2
 Time =    4861.0000000000000     
Ne    0.000000    0.000000    4.233416
Ne    0.000000    0.000000    0.000000
           2
 Time =    4862.0000000000000     
Ne    0.000000    0.000000    4.233416
Ne    0.000000    0.000000    0.000000
           2
 Time =    4863.0000000000000     
Ne    0.000000    0.000000    4.233416
Ne    0.000000    0.000000    0.000000
           2
 Time =    4864.0000000000000     
Ne    0.000000    0.000000    4.233416
Ne    0.000000    0.000000    0.000000
           2
 Time =    4865.0000000000000     
Ne    0.000000    0.000000    4.233416
Ne    0.000000    0.000000    0.000000
           2
 Time =    4866.0000000000000     
Ne    0.000000    0.000000    4.233416
Ne    0.000000    0.000000    0.000000
           2
 Time =    4867.0000000000000     
Ne    0.000000    0.000000    4.233416
Ne    0.000000    0.000000    0.000000
           2
 Time =    4868.0000000000000     
Ne    0.000000    0.000000    4.233416
Ne    0.000000    0.000000    0.000000
           2
 Time =    4869.0000000000000     
Ne    0.000000    0.000000    4.233416
Ne    0.000000    0.000000    0.000000
           2
 Time =    4870.0000000000000     
Ne    0.000000    0.000000    4.233416
Ne    0.000000    0.000000    0.000000
           2
 Time =    4871.0000000000000     
Ne    0.000000    0.000000    4.233416
Ne    0.000000    0.000000    0.000000
           2
 Time =    4872.0000000000000     
Ne    0.000000    0.000000    4.233416
Ne    0.000000    0.000000    0.000000
           2
 Time =    4873.0000000000000     
Ne    0.000000    0.000000    4.233416
Ne    0.000000    0.000000    0.000000
           2
 Time =    4874.0000000000000     
Ne    0.000000    0.000000    4.233416
Ne    0.000000    0.000000    0.000000
           2
 Time =    4875.0000000000000     
Ne    0.000000    0.000000    4.233416
Ne    0.000000    0.000000    0.000000
           2
 Time =    4876.0000000000000     
Ne    0.000000    0.000000    4.233416
Ne    0.000000    0.000000    0.000000
           2
 Time =    4877.0000000000000     
Ne    0.000000    0.000000    4.233416
Ne    0.000000    0.000000    0.000000
           2
 Time =    4878.0000000000000     
Ne    0.000000    0.000000    4.233416
Ne    0.000000    0.000000    0.000000
           2
 Time =    4879.0000000000000     
Ne    0.000000    0.000000    4.233416
Ne    0.000000    0.000000    0.000000
           2
 Time =    4880.0000000000000     
Ne    0.000000    0.000000    4.233416
Ne    0.000000    0.000000    0.000000
           2
 Time =    4881.0000000000000     
Ne    0.000000    0.000000    4.233416
Ne    0.000000    0.000000    0.000000
           2
 Time =    4882.0000000000000     
Ne    0.000000    0.000000    4.233416
Ne    0.000000    0.000000    0.000000
           2
 Time =    4883.0000000000000     
Ne    0.000000    0.000000    4.233416
Ne    0.000000    0.000000    0.000000
           2
 Time =    4884.0000000000000     
Ne    0.000000    0.000000    4.233416
Ne    0.000000    0.000000    0.000000
           2
 Time =    4885.0000000000000     
Ne    0.000000    0.000000    4.233416
Ne    0.000000    0.000000    0.000000
           2
 Time =    4886.0000000000000     
Ne    0.000000    0.000000    4.233416
Ne    0.000000    0.000000    0.000000
           2
 Time =    4887.0000000000000     
Ne    0.000000    0.000000    4.233416
Ne    0.000000    0.000000    0.000000
           2
 Time =    4888.0000000000000     
Ne    0.000000    0.000000    4.233416
Ne    0.000000    0.000000    0.000000
           2
 Time =    4889.0000000000000     
Ne    0.000000    0.000000    4.233416
Ne    0.000000    0.000000    0.000000
           2
 Time =    4890.0000000000000     
Ne    0.000000    0.000000    4.233416
Ne    0.000000    0.000000    0.000000
           2
 Time =    4891.0000000000000     
Ne    0.000000    0.000000    4.233416
Ne    0.000000    0.000000    0.000000
           2
 Time =    4892.0000000000000     
Ne    0.000000    0.000000    4.233416
Ne    0.000000    0.000000    0.000000
           2
 Time =    4893.0000000000000     
Ne    0.000000    0.000000    4.233416
Ne    0.000000    0.000000    0.000000
           2
 Time =    4894.0000000000000     
Ne    0.000000    0.000000    4.233416
Ne    0.000000    0.000000    0.000000
           2
 Time =    4895.0000000000000     
Ne    0.000000    0.000000    4.233416
Ne    0.000000    0.000000    0.000000
           2
 Time =    4896.0000000000000     
Ne    0.000000    0.000000    4.233416
Ne    0.000000    0.000000    0.000000
           2
 Time =    4897.0000000000000     
Ne    0.000000    0.000000    4.233416
Ne    0.000000    0.000000    0.000000
           2
 Time =    4898.0000000000000     
Ne    0.000000    0.000000    4.233416
Ne    0.000000    0.000000    0.000000
           2
 Time =    4899.0000000000000     
Ne    0.000000    0.000000    4.233416
Ne    0.000000    0.000000    0.000000
           2
 Time =    4900.0000000000000     
Ne    0.000000    0.000000    4.233416
Ne    0.000000    0.000000    0.000000
           2
 Time =    4901.0000000000000     
Ne    0.000000    0.000000    4.233416
Ne    0.000000    0.000000    0.000000
           2
 Time =    4902.0000000000000     
Ne    0.000000    0.000000    4.233416
Ne    0.000000    0.000000    0.000000
           2
 Time =    4903.0000000000000     
Ne    0.000000    0.000000    4.233416
Ne    0.000000    0.000000    0.000000
           2
 Time =    4904.0000000000000     
Ne    0.000000    0.000000    4.233416
Ne    0.000000    0.000000    0.000000
           2
 Time =    4905.0000000000000     
Ne    0.000000    0.000000    4.233416
Ne    0.000000    0.000000    0.000000
           2
 Time =    4906.0000000000000     
Ne    0.000000    0.000000    4.233416
Ne    0.000000    0.000000    0.000000
           2
 Time =    4907.0000000000000     
Ne    0.000000    0.000000    4.233416
Ne    0.000000    0.000000    0.000000
           2
 Time =    4908.0000000000000     
Ne    0.000000    0.000000    4.233416
Ne    0.000000    0.000000    0.000000
           2
 Time =    4909.0000000000000     
Ne    0.000000    0.000000    4.233416
Ne    0.000000    0.000000    0.000000
           2
 Time =    4910.0000000000000     
Ne    0.000000    0.000000    4.233416
Ne    0.000000    0.000000    0.000000
           2
 Time =    4911.0000000000000     
Ne    0.000000    0.000000    4.233416
Ne    0.000000    0.000000    0.000000
           2
 Time =    4912.0000000000000     
Ne    0.000000    0.000000    4.233416
Ne    0.000000    0.000000    0.000000
           2
 Time =    4913.0000000000000     
Ne    0.000000    0.000000    4.233416
Ne    0.000000    0.000000    0.000000
           2
 Time =    4914.0000000000000     
Ne    0.000000    0.000000    4.233416
Ne    0.000000    0.000000    0.000000
           2
 Time =    4915.0000000000000     
Ne    0.000000    0.000000    4.233416
Ne    0.000000    0.000000    0.000000
           2
 Time =    4916.0000000000000     
Ne    0.000000    0.000000    4.233416
Ne    0.000000    0.000000    0.000000
           2
 Time =    4917.0000000000000     
Ne    0.000000    0.000000    4.233416
Ne    0.000000    0.000000    0.000000
           2
 Time =    4918.0000000000000     
Ne    0.000000    0.000000    4.233416
Ne    0.000000    0.000000    0.000000
           2
 Time =    4919.0000000000000     
Ne    0.000000    0.000000    4.233416
Ne    0.000000    0.000000    0.000000
           2
 Time =    4920.0000000000000     
Ne    0.000000    0.000000    4.233416
Ne    0.000000    0.000000    0.000000
           2
 Time =    4921.0000000000000     
Ne    0.000000    0.000000    4.233416
Ne    0.000000    0.000000    0.000000
           2
 Time =    4922.0000000000000     
Ne    0.000000    0.000000    4.233416
Ne    0.000000    0.000000    0.000000
           2
 Time =    4923.0000000000000     
Ne    0.000000    0.000000    4.233416
Ne    0.000000    0.000000    0.000000
           2
 Time =    4924.0000000000000     
Ne    0.000000    0.000000    4.233416
Ne    0.000000    0.000000    0.000000
           2
 Time =    4925.0000000000000     
Ne    0.000000    0.000000    4.233416
Ne    0.000000    0.000000    0.000000
           2
 Time =    4926.0000000000000     
Ne    0.000000    0.000000    4.233416
Ne    0.000000    0.000000    0.000000
           2
 Time =    4927.0000000000000     
Ne    0.000000    0.000000    4.233416
Ne    0.000000    0.000000    0.000000
           2
 Time =    4928.0000000000000     
Ne    0.000000    0.000000    4.233416
Ne    0.000000    0.000000    0.000000
           2
 Time =    4929.0000000000000     
Ne    0.000000    0.000000    4.233416
Ne    0.000000    0.000000    0.000000
           2
 Time =    4930.0000000000000     
Ne    0.000000    0.000000    4.233416
Ne    0.000000    0.000000    0.000000
           2
 Time =    4931.0000000000000     
Ne    0.000000    0.000000    4.233416
Ne    0.000000    0.000000    0.000000
           2
 Time =    4932.0000000000000     
Ne    0.000000    0.000000    4.233416
Ne    0.000000    0.000000    0.000000
           2
 Time =    4933.0000000000000     
Ne    0.000000    0.000000    4.233416
Ne    0.000000    0.000000    0.000000
           2
 Time =    4934.0000000000000     
Ne    0.000000    0.000000    4.233416
Ne    0.000000    0.000000    0.000000
           2
 Time =    4935.0000000000000     
Ne    0.000000    0.000000    4.233416
Ne    0.000000    0.000000    0.000000
           2
 Time =    4936.0000000000000     
Ne    0.000000    0.000000    4.233416
Ne    0.000000    0.000000    0.000000
           2
 Time =    4937.0000000000000     
Ne    0.000000    0.000000    4.233416
Ne    0.000000    0.000000    0.000000
           2
 Time =    4938.0000000000000     
Ne    0.000000    0.000000    4.233416
Ne    0.000000    0.000000    0.000000
           2
 Time =    4939.0000000000000     
Ne    0.000000    0.000000    4.233416
Ne    0.000000    0.000000    0.000000
           2
 Time =    4940.0000000000000     
Ne    0.000000    0.000000    4.233416
Ne    0.000000    0.000000    0.000000
           2
 Time =    4941.0000000000000     
Ne    0.000000    0.000000    4.233416
Ne    0.000000    0.000000    0.000000
           2
 Time =    4942.0000000000000     
Ne    0.000000    0.000000    4.233416
Ne    0.000000    0.000000    0.000000
           2
 Time =    4943.0000000000000     
Ne    0.000000    0.000000    4.233416
Ne    0.000000    0.000000    0.000000
           2
 Time =    4944.0000000000000     
Ne    0.000000    0.000000    4.233416
Ne    0.000000    0.000000    0.000000
           2
 Time =    4945.0000000000000     
Ne    0.000000    0.000000    4.233416
Ne    0.000000    0.000000    0.000000
           2
 Time =    4946.0000000000000     
Ne    0.000000    0.000000    4.233416
Ne    0.000000    0.000000    0.000000
           2
 Time =    4947.0000000000000     
Ne    0.000000    0.000000    4.233416
Ne    0.000000    0.000000    0.000000
           2
 Time =    4948.0000000000000     
Ne    0.000000    0.000000    4.233416
Ne    0.000000    0.000000    0.000000
           2
 Time =    4949.0000000000000     
Ne    0.000000    0.000000    4.233416
Ne    0.000000    0.000000    0.000000
           2
 Time =    4950.0000000000000     
Ne    0.000000    0.000000    4.233416
Ne    0.000000    0.000000    0.000000
           2
 Time =    4951.0000000000000     
Ne    0.000000    0.000000    4.233416
Ne    0.000000    0.000000    0.000000
           2
 Time =    4952.0000000000000     
Ne    0.000000    0.000000    4.233416
Ne    0.000000    0.000000    0.000000
           2
 Time =    4953.0000000000000     
Ne    0.000000    0.000000    4.233416
Ne    0.000000    0.000000    0.000000
           2
 Time =    4954.0000000000000     
Ne    0.000000    0.000000    4.233416
Ne    0.000000    0.000000    0.000000
           2
 Time =    4955.0000000000000     
Ne    0.000000    0.000000    4.233416
Ne    0.000000    0.000000    0.000000
           2
 Time =    4956.0000000000000     
Ne    0.000000    0.000000    4.233416
Ne    0.000000    0.000000    0.000000
           2
 Time =    4957.0000000000000     
Ne    0.000000    0.000000    4.233416
Ne    0.000000    0.000000    0.000000
           2
 Time =    4958.0000000000000     
Ne    0.000000    0.000000    4.233416
Ne    0.000000    0.000000    0.000000
           2
 Time =    4959.0000000000000     
Ne    0.000000    0.000000    4.233416
Ne    0.000000    0.000000    0.000000
           2
 Time =    4960.0000000000000     
Ne    0.000000    0.000000    4.233416
Ne    0.000000    0.000000    0.000000
           2
 Time =    4961.0000000000000     
Ne    0.000000    0.000000    4.233416
Ne    0.000000    0.000000    0.000000
           2
 Time =    4962.0000000000000     
Ne    0.000000    0.000000    4.233416
Ne    0.000000    0.000000    0.000000
           2
 Time =    4963.0000000000000     
Ne    0.000000    0.000000    4.233416
Ne    0.000000    0.000000    0.000000
           2
 Time =    4964.0000000000000     
Ne    0.000000    0.000000    4.233416
Ne    0.000000    0.000000    0.000000
           2
 Time =    4965.0000000000000     
Ne    0.000000    0.000000    4.233416
Ne    0.000000    0.000000    0.000000
           2
 Time =    4966.0000000000000     
Ne    0.000000    0.000000    4.233416
Ne    0.000000    0.000000    0.000000
           2
 Time =    4967.0000000000000     
Ne    0.000000    0.000000    4.233416
Ne    0.000000    0.000000    0.000000
           2
 Time =    4968.0000000000000     
Ne    0.000000    0.000000    4.233416
Ne    0.000000    0.000000    0.000000
           2
 Time =    4969.0000000000000     
Ne    0.000000    0.000000    4.233416
Ne    0.000000    0.000000    0.000000
           2
 Time =    4970.0000000000000     
Ne    0.000000    0.000000    4.233416
Ne    0.000000    0.000000    0.000000
           2
 Time =    4971.0000000000000     
Ne    0.000000    0.000000    4.233416
Ne    0.000000    0.000000    0.000000
           2
 Time =    4972.0000000000000     
Ne    0.000000    0.000000    4.233416
Ne    0.000000    0.000000    0.000000
           2
 Time =    4973.0000000000000     
Ne    0.000000    0.000000    4.233416
Ne    0.000000    0.000000    0.000000
           2
 Time =    4974.0000000000000     
Ne    0.000000    0.000000    4.233416
Ne    0.000000    0.000000    0.000000
           2
 Time =    4975.0000000000000     
Ne    0.000000    0.000000    4.233416
Ne    0.000000    0.000000    0.000000
           2
 Time =    4976.0000000000000     
Ne    0.000000    0.000000    4.233416
Ne    0.000000    0.000000    0.000000
           2
 Time =    4977.0000000000000     
Ne    0.000000    0.000000    4.233416
Ne    0.000000    0.000000    0.000000
           2
 Time =    4978.0000000000000     
Ne    0.000000    0.000000    4.233416
Ne    0.000000    0.000000    0.000000
           2
 Time =    4979.0000000000000     
Ne    0.000000    0.000000    4.233416
Ne    0.000000    0.000000    0.000000
           2
 Time =    4980.0000000000000     
Ne    0.000000    0.000000    4.233416
Ne    0.000000    0.000000    0.000000
           2
 Time =    4981.0000000000000     
Ne    0.000000    0.000000    4.233416
Ne    0.000000    0.000000    0.000000
           2
 Time =    4982.0000000000000     
Ne    0.000000    0.000000    4.233416
Ne    0.000000    0.000000    0.000000
           2
 Time =    4983.0000000000000     
Ne    0.000000    0.000000    4.233416
Ne    0.000000    0.000000    0.000000
           2
 Time =    4984.0000000000000     
Ne    0.000000    0.000000    4.233416
Ne    0.000000    0.000000    0.000000
           2
 Time =    4985.0000000000000     
Ne    0.000000    0.000000    4.233416
Ne    0.000000    0.000000    0.000000
           2
 Time =    4986.0000000000000     
Ne    0.000000    0.000000    4.233416
Ne    0.000000    0.000000    0.000000
           2
 Time =    4987.0000000000000     
Ne    0.000000    0.000000    4.233416
Ne    0.000000    0.000000    0.000000
           2
 Time =    4988.0000000000000     
Ne    0.000000    0.000000    4.233416
Ne    0.000000    0.000000    0.000000
           2
 Time =    4989.0000000000000     
Ne    0.000000    0.000000    4.233416
Ne    0.000000    0.000000    0.000000
           2
 Time =    4990.0000000000000     
Ne    0.000000    0.000000    4.233416
Ne    0.000000    0.000000    0.000000
           2
 Time =    4991.0000000000000     
Ne    0.000000    0.000000    4.233416
Ne    0.000000    0.000000    0.000000
           2
 Time =    4992.0000000000000     
Ne    0.000000    0.000000    4.233416
Ne    0.000000    0.000000    0.000000
           2
 Time =    4993.0000000000000     
Ne    0.000000    0.000000    4.233416
Ne    0.000000    0.000000    0.000000
           2
 Time =    4994.0000000000000     
Ne    0.000000    0.000000    4.233416
Ne    0.000000    0.000000    0.000000
           2
 Time =    4995.0000000000000     
Ne    0.000000    0.000000    4.233416
Ne    0.000000    0.000000    0.000000
           2
 Time =    4996.0000000000000     
Ne    0.000000    0.000000    4.233416
Ne    0.000000    0.000000    0.000000
           2
 Time =    4997.0000000000000     
Ne    0.000000    0.000000    4.233416
Ne    0.000000    0.000000    0.000000
           2
 Time =    4998.0000000000000     
Ne    0.000000    0.000000    4.233416
Ne    0.000000    0.000000    0.000000
           2
 Time =    4999.0000000000000     
Ne    0.000000    0.000000    4.233416
Ne    0.000000    0.000000    0.000000
           2
 Time =    5000.0000000000000     
Ne    0.000000    0.000000    4.233416
Ne    0.000000    0.000000    0.000000
           2
 Time =    5001.0000000000000     
Ne    0.000000    0.000000    4.233416
Ne    0.000000    0.000000    0.000000
           2
 Time =    5002.0000000000000     
Ne    0.000000    0.000000    4.233416
Ne    0.000000    0.000000    0.000000
           2
 Time =    5003.0000000000000     
Ne    0.000000    0.000000    4.233416
Ne    0.000000    0.000000    0.000000
           2
 Time =    5004.0000000000000     
Ne    0.000000    0.000000    4.233416
Ne    0.000000    0.000000    0.000000
           2
 Time =    5005.0000000000000     
Ne    0.000000    0.000000    4.233416
Ne    0.000000    0.000000    0.000000
           2
 Time =    5006.0000000000000     
Ne    0.000000    0.000000    4.233416
Ne    0.000000    0.000000    0.000000
           2
 Time =    5007.0000000000000     
Ne    0.000000    0.000000    4.233416
Ne    0.000000    0.000000    0.000000
           2
 Time =    5008.0000000000000     
Ne    0.000000    0.000000    4.233416
Ne    0.000000    0.000000    0.000000
           2
 Time =    5009.0000000000000     
Ne    0.000000    0.000000    4.233416
Ne    0.000000    0.000000    0.000000
           2
 Time =    5010.0000000000000     
Ne    0.000000    0.000000    4.233416
Ne    0.000000    0.000000    0.000000
           2
 Time =    5011.0000000000000     
Ne    0.000000    0.000000    4.233416
Ne    0.000000    0.000000    0.000000
           2
 Time =    5012.0000000000000     
Ne    0.000000    0.000000    4.233416
Ne    0.000000    0.000000    0.000000
           2
 Time =    5013.0000000000000     
Ne    0.000000    0.000000    4.233416
Ne    0.000000    0.000000    0.000000
           2
 Time =    5014.0000000000000     
Ne    0.000000    0.000000    4.233416
Ne    0.000000    0.000000    0.000000
           2
 Time =    5015.0000000000000     
Ne    0.000000    0.000000    4.233416
Ne    0.000000    0.000000    0.000000
           2
 Time =    5016.0000000000000     
Ne    0.000000    0.000000    4.233416
Ne    0.000000    0.000000    0.000000
           2
 Time =    5017.0000000000000     
Ne    0.000000    0.000000    4.233416
Ne    0.000000    0.000000    0.000000
           2
 Time =    5018.0000000000000     
Ne    0.000000    0.000000    4.233416
Ne    0.000000    0.000000    0.000000
           2
 Time =    5019.0000000000000     
Ne    0.000000    0.000000    4.233416
Ne    0.000000    0.000000    0.000000
           2
 Time =    5020.0000000000000     
Ne    0.000000    0.000000    4.233416
Ne    0.000000    0.000000    0.000000
           2
 Time =    5021.0000000000000     
Ne    0.000000    0.000000    4.233416
Ne    0.000000    0.000000    0.000000
           2
 Time =    5022.0000000000000     
Ne    0.000000    0.000000    4.233416
Ne    0.000000    0.000000    0.000000
           2
 Time =    5023.0000000000000     
Ne    0.000000    0.000000    4.233416
Ne    0.000000    0.000000    0.000000
           2
 Time =    5024.0000000000000     
Ne    0.000000    0.000000    4.233416
Ne    0.000000    0.000000    0.000000
           2
 Time =    5025.0000000000000     
Ne    0.000000    0.000000    4.233416
Ne    0.000000    0.000000    0.000000
           2
 Time =    5026.0000000000000     
Ne    0.000000    0.000000    4.233416
Ne    0.000000    0.000000    0.000000
           2
 Time =    5027.0000000000000     
Ne    0.000000    0.000000    4.233416
Ne    0.000000    0.000000    0.000000
           2
 Time =    5028.0000000000000     
Ne    0.000000    0.000000    4.233416
Ne    0.000000    0.000000    0.000000
           2
 Time =    5029.0000000000000     
Ne    0.000000    0.000000    4.233416
Ne    0.000000    0.000000    0.000000
           2
 Time =    5030.0000000000000     
Ne    0.000000    0.000000    4.233416
Ne    0.000000    0.000000    0.000000
           2
 Time =    5031.0000000000000     
Ne    0.000000    0.000000    4.233416
Ne    0.000000    0.000000    0.000000
           2
 Time =    5032.0000000000000     
Ne    0.000000    0.000000    4.233416
Ne    0.000000    0.000000    0.000000
           2
 Time =    5033.0000000000000     
Ne    0.000000    0.000000    4.233416
Ne    0.000000    0.000000    0.000000
           2
 Time =    5034.0000000000000     
Ne    0.000000    0.000000    4.233416
Ne    0.000000    0.000000    0.000000
           2
 Time =    5035.0000000000000     
Ne    0.000000    0.000000    4.233416
Ne    0.000000    0.000000    0.000000
           2
 Time =    5036.0000000000000     
Ne    0.000000    0.000000    4.233416
Ne    0.000000    0.000000    0.000000
           2
 Time =    5037.0000000000000     
Ne    0.000000    0.000000    4.233416
Ne    0.000000    0.000000    0.000000
           2
 Time =    5038.0000000000000     
Ne    0.000000    0.000000    4.233416
Ne    0.000000    0.000000    0.000000
           2
 Time =    5039.0000000000000     
Ne    0.000000    0.000000    4.233416
Ne    0.000000    0.000000    0.000000
           2
 Time =    5040.0000000000000     
Ne    0.000000    0.000000    4.233416
Ne    0.000000    0.000000    0.000000
           2
 Time =    5041.0000000000000     
Ne    0.000000    0.000000    4.233416
Ne    0.000000    0.000000    0.000000
           2
 Time =    5042.0000000000000     
Ne    0.000000    0.000000    4.233416
Ne    0.000000    0.000000    0.000000
           2
 Time =    5043.0000000000000     
Ne    0.000000    0.000000    4.233416
Ne    0.000000    0.000000    0.000000
           2
 Time =    5044.0000000000000     
Ne    0.000000    0.000000    4.233416
Ne    0.000000    0.000000    0.000000
           2
 Time =    5045.0000000000000     
Ne    0.000000    0.000000    4.233416
Ne    0.000000    0.000000    0.000000
           2
 Time =    5046.0000000000000     
Ne    0.000000    0.000000    4.233416
Ne    0.000000    0.000000    0.000000
           2
 Time =    5047.0000000000000     
Ne    0.000000    0.000000    4.233416
Ne    0.000000    0.000000    0.000000
           2
 Time =    5048.0000000000000     
Ne    0.000000    0.000000    4.233416
Ne    0.000000    0.000000    0.000000
           2
 Time =    5049.0000000000000     
Ne    0.000000    0.000000    4.233416
Ne    0.000000    0.000000    0.000000
           2
 Time =    5050.0000000000000     
Ne    0.000000    0.000000    4.233416
Ne    0.000000    0.000000    0.000000
           2
 Time =    5051.0000000000000     
Ne    0.000000    0.000000    4.233416
Ne    0.000000    0.000000    0.000000
           2
 Time =    5052.0000000000000     
Ne    0.000000    0.000000    4.233416
Ne    0.000000    0.000000    0.000000
           2
 Time =    5053.0000000000000     
Ne    0.000000    0.000000    4.233416
Ne    0.000000    0.000000    0.000000
           2
 Time =    5054.0000000000000     
Ne    0.000000    0.000000    4.233416
Ne    0.000000    0.000000    0.000000
           2
 Time =    5055.0000000000000     
Ne    0.000000    0.000000    4.233416
Ne    0.000000    0.000000    0.000000
           2
 Time =    5056.0000000000000     
Ne    0.000000    0.000000    4.233416
Ne    0.000000    0.000000    0.000000
           2
 Time =    5057.0000000000000     
Ne    0.000000    0.000000    4.233416
Ne    0.000000    0.000000    0.000000
           2
 Time =    5058.0000000000000     
Ne    0.000000    0.000000    4.233416
Ne    0.000000    0.000000    0.000000
           2
 Time =    5059.0000000000000     
Ne    0.000000    0.000000    4.233416
Ne    0.000000    0.000000    0.000000
           2
 Time =    5060.0000000000000     
Ne    0.000000    0.000000    4.233416
Ne    0.000000    0.000000    0.000000
           2
 Time =    5061.0000000000000     
Ne    0.000000    0.000000    4.233416
Ne    0.000000    0.000000    0.000000
           2
 Time =    5062.0000000000000     
Ne    0.000000    0.000000    4.233416
Ne    0.000000    0.000000    0.000000
           2
 Time =    5063.0000000000000     
Ne    0.000000    0.000000    4.233416
Ne    0.000000    0.000000    0.000000
           2
 Time =    5064.0000000000000     
Ne    0.000000    0.000000    4.233416
Ne    0.000000    0.000000    0.000000
           2
 Time =    5065.0000000000000     
Ne    0.000000    0.000000    4.233416
Ne    0.000000    0.000000    0.000000
           2
 Time =    5066.0000000000000     
Ne    0.000000    0.000000    4.233416
Ne    0.000000    0.000000    0.000000
           2
 Time =    5067.0000000000000     
Ne    0.000000    0.000000    4.233416
Ne    0.000000    0.000000    0.000000
           2
 Time =    5068.0000000000000     
Ne    0.000000    0.000000    4.233416
Ne    0.000000    0.000000    0.000000
           2
 Time =    5069.0000000000000     
Ne    0.000000    0.000000    4.233416
Ne    0.000000    0.000000    0.000000
           2
 Time =    5070.0000000000000     
Ne    0.000000    0.000000    4.233416
Ne    0.000000    0.000000    0.000000
           2
 Time =    5071.0000000000000     
Ne    0.000000    0.000000    4.233416
Ne    0.000000    0.000000    0.000000
           2
 Time =    5072.0000000000000     
Ne    0.000000    0.000000    4.233416
Ne    0.000000    0.000000    0.000000
           2
 Time =    5073.0000000000000     
Ne    0.000000    0.000000    4.233416
Ne    0.000000    0.000000    0.000000
           2
 Time =    5074.0000000000000     
Ne    0.000000    0.000000    4.233416
Ne    0.000000    0.000000    0.000000
           2
 Time =    5075.0000000000000     
Ne    0.000000    0.000000    4.233416
Ne    0.000000    0.000000    0.000000
           2
 Time =    5076.0000000000000     
Ne    0.000000    0.000000    4.233416
Ne    0.000000    0.000000    0.000000
           2
 Time =    5077.0000000000000     
Ne    0.000000    0.000000    4.233416
Ne    0.000000    0.000000    0.000000
           2
 Time =    5078.0000000000000     
Ne    0.000000    0.000000    4.233416
Ne    0.000000    0.000000    0.000000
           2
 Time =    5079.0000000000000     
Ne    0.000000    0.000000    4.233416
Ne    0.000000    0.000000    0.000000
           2
 Time =    5080.0000000000000     
Ne    0.000000    0.000000    4.233416
Ne    0.000000    0.000000    0.000000
           2
 Time =    5081.0000000000000     
Ne    0.000000    0.000000    4.233416
Ne    0.000000    0.000000    0.000000
           2
 Time =    5082.0000000000000     
Ne    0.000000    0.000000    4.233416
Ne    0.000000    0.000000    0.000000
           2
 Time =    5083.0000000000000     
Ne    0.000000    0.000000    4.233416
Ne    0.000000    0.000000    0.000000
           2
 Time =    5084.0000000000000     
Ne    0.000000    0.000000    4.233416
Ne    0.000000    0.000000    0.000000
           2
 Time =    5085.0000000000000     
Ne    0.000000    0.000000    4.233416
Ne    0.000000    0.000000    0.000000
           2
 Time =    5086.0000000000000     
Ne    0.000000    0.000000    4.233416
Ne    0.000000    0.000000    0.000000
           2
 Time =    5087.0000000000000     
Ne    0.000000    0.000000    4.233416
Ne    0.000000    0.000000    0.000000
           2
 Time =    5088.0000000000000     
Ne    0.000000    0.000000    4.233416
Ne    0.000000    0.000000    0.000000
           2
 Time =    5089.0000000000000     
Ne    0.000000    0.000000    4.233416
Ne    0.000000    0.000000    0.000000
           2
 Time =    5090.0000000000000     
Ne    0.000000    0.000000    4.233416
Ne    0.000000    0.000000    0.000000
           2
 Time =    5091.0000000000000     
Ne    0.000000    0.000000    4.233416
Ne    0.000000    0.000000    0.000000
           2
 Time =    5092.0000000000000     
Ne    0.000000    0.000000    4.233416
Ne    0.000000    0.000000    0.000000
           2
 Time =    5093.0000000000000     
Ne    0.000000    0.000000    4.233416
Ne    0.000000    0.000000    0.000000
           2
 Time =    5094.0000000000000     
Ne    0.000000    0.000000    4.233416
Ne    0.000000    0.000000    0.000000
           2
 Time =    5095.0000000000000     
Ne    0.000000    0.000000    4.233416
Ne    0.000000    0.000000    0.000000
           2
 Time =    5096.0000000000000     
Ne    0.000000    0.000000    4.233416
Ne    0.000000    0.000000    0.000000
           2
 Time =    5097.0000000000000     
Ne    0.000000    0.000000    4.233416
Ne    0.000000    0.000000    0.000000
           2
 Time =    5098.0000000000000     
Ne    0.000000    0.000000    4.233416
Ne    0.000000    0.000000    0.000000
           2
 Time =    5099.0000000000000     
Ne    0.000000    0.000000    4.233416
Ne    0.000000    0.000000    0.000000
           2
 Time =    5100.0000000000000     
Ne    0.000000    0.000000    4.233416
Ne    0.000000    0.000000    0.000000
           2
 Time =    5101.0000000000000     
Ne    0.000000    0.000000    4.233416
Ne    0.000000    0.000000    0.000000
           2
 Time =    5102.0000000000000     
Ne    0.000000    0.000000    4.233416
Ne    0.000000    0.000000    0.000000
           2
 Time =    5103.0000000000000     
Ne    0.000000    0.000000    4.233416
Ne    0.000000    0.000000    0.000000
           2
 Time =    5104.0000000000000     
Ne    0.000000    0.000000    4.233416
Ne    0.000000    0.000000    0.000000
           2
 Time =    5105.0000000000000     
Ne    0.000000    0.000000    4.233416
Ne    0.000000    0.000000    0.000000
           2
 Time =    5106.0000000000000     
Ne    0.000000    0.000000    4.233416
Ne    0.000000    0.000000    0.000000
           2
 Time =    5107.0000000000000     
Ne    0.000000    0.000000    4.233416
Ne    0.000000    0.000000    0.000000
           2
 Time =    5108.0000000000000     
Ne    0.000000    0.000000    4.233416
Ne    0.000000    0.000000    0.000000
           2
 Time =    5109.0000000000000     
Ne    0.000000    0.000000    4.233416
Ne    0.000000    0.000000    0.000000
           2
 Time =    5110.0000000000000     
Ne    0.000000    0.000000    4.233416
Ne    0.000000    0.000000    0.000000
           2
 Time =    5111.0000000000000     
Ne    0.000000    0.000000    4.233416
Ne    0.000000    0.000000    0.000000
           2
 Time =    5112.0000000000000     
Ne    0.000000    0.000000    4.233416
Ne    0.000000    0.000000    0.000000
           2
 Time =    5113.0000000000000     
Ne    0.000000    0.000000    4.233416
Ne    0.000000    0.000000    0.000000
           2
 Time =    5114.0000000000000     
Ne    0.000000    0.000000    4.233416
Ne    0.000000    0.000000    0.000000
           2
 Time =    5115.0000000000000     
Ne    0.000000    0.000000    4.233416
Ne    0.000000    0.000000    0.000000
           2
 Time =    5116.0000000000000     
Ne    0.000000    0.000000    4.233416
Ne    0.000000    0.000000    0.000000
           2
 Time =    5117.0000000000000     
Ne    0.000000    0.000000    4.233416
Ne    0.000000    0.000000    0.000000
           2
 Time =    5118.0000000000000     
Ne    0.000000    0.000000    4.233416
Ne    0.000000    0.000000    0.000000
           2
 Time =    5119.0000000000000     
Ne    0.000000    0.000000    4.233416
Ne    0.000000    0.000000    0.000000
           2
 Time =    5120.0000000000000     
Ne    0.000000    0.000000    4.233416
Ne    0.000000    0.000000    0.000000
           2
 Time =    5121.0000000000000     
Ne    0.000000    0.000000    4.233416
Ne    0.000000    0.000000    0.000000
           2
 Time =    5122.0000000000000     
Ne    0.000000    0.000000    4.233416
Ne    0.000000    0.000000    0.000000
           2
 Time =    5123.0000000000000     
Ne    0.000000    0.000000    4.233416
Ne    0.000000    0.000000    0.000000
           2
 Time =    5124.0000000000000     
Ne    0.000000    0.000000    4.233416
Ne    0.000000    0.000000    0.000000
           2
 Time =    5125.0000000000000     
Ne    0.000000    0.000000    4.233416
Ne    0.000000    0.000000    0.000000
           2
 Time =    5126.0000000000000     
Ne    0.000000    0.000000    4.233416
Ne    0.000000    0.000000    0.000000
           2
 Time =    5127.0000000000000     
Ne    0.000000    0.000000    4.233416
Ne    0.000000    0.000000    0.000000
           2
 Time =    5128.0000000000000     
Ne    0.000000    0.000000    4.233416
Ne    0.000000    0.000000    0.000000
           2
 Time =    5129.0000000000000     
Ne    0.000000    0.000000    4.233416
Ne    0.000000    0.000000    0.000000
           2
 Time =    5130.0000000000000     
Ne    0.000000    0.000000    4.233416
Ne    0.000000    0.000000    0.000000
           2
 Time =    5131.0000000000000     
Ne    0.000000    0.000000    4.233416
Ne    0.000000    0.000000    0.000000
           2
 Time =    5132.0000000000000     
Ne    0.000000    0.000000    4.233416
Ne    0.000000    0.000000    0.000000
           2
 Time =    5133.0000000000000     
Ne    0.000000    0.000000    4.233416
Ne    0.000000    0.000000    0.000000
           2
 Time =    5134.0000000000000     
Ne    0.000000    0.000000    4.233416
Ne    0.000000    0.000000    0.000000
           2
 Time =    5135.0000000000000     
Ne    0.000000    0.000000    4.233416
Ne    0.000000    0.000000    0.000000
           2
 Time =    5136.0000000000000     
Ne    0.000000    0.000000    4.233416
Ne    0.000000    0.000000    0.000000
           2
 Time =    5137.0000000000000     
Ne    0.000000    0.000000    4.233416
Ne    0.000000    0.000000    0.000000
           2
 Time =    5138.0000000000000     
Ne    0.000000    0.000000    4.233416
Ne    0.000000    0.000000    0.000000
           2
 Time =    5139.0000000000000     
Ne    0.000000    0.000000    4.233416
Ne    0.000000    0.000000    0.000000
           2
 Time =    5140.0000000000000     
Ne    0.000000    0.000000    4.233416
Ne    0.000000    0.000000    0.000000
           2
 Time =    5141.0000000000000     
Ne    0.000000    0.000000    4.233416
Ne    0.000000    0.000000    0.000000
           2
 Time =    5142.0000000000000     
Ne    0.000000    0.000000    4.233416
Ne    0.000000    0.000000    0.000000
           2
 Time =    5143.0000000000000     
Ne    0.000000    0.000000    4.233416
Ne    0.000000    0.000000    0.000000
           2
 Time =    5144.0000000000000     
Ne    0.000000    0.000000    4.233416
Ne    0.000000    0.000000    0.000000
           2
 Time =    5145.0000000000000     
Ne    0.000000    0.000000    4.233416
Ne    0.000000    0.000000    0.000000
           2
 Time =    5146.0000000000000     
Ne    0.000000    0.000000    4.233416
Ne    0.000000    0.000000    0.000000
           2
 Time =    5147.0000000000000     
Ne    0.000000    0.000000    4.233416
Ne    0.000000    0.000000    0.000000
           2
 Time =    5148.0000000000000     
Ne    0.000000    0.000000    4.233416
Ne    0.000000    0.000000    0.000000
           2
 Time =    5149.0000000000000     
Ne    0.000000    0.000000    4.233416
Ne    0.000000    0.000000    0.000000
           2
 Time =    5150.0000000000000     
Ne    0.000000    0.000000    4.233416
Ne    0.000000    0.000000    0.000000
           2
 Time =    5151.0000000000000     
Ne    0.000000    0.000000    4.233416
Ne    0.000000    0.000000    0.000000
           2
 Time =    5152.0000000000000     
Ne    0.000000    0.000000    4.233416
Ne    0.000000    0.000000    0.000000
           2
 Time =    5153.0000000000000     
Ne    0.000000    0.000000    4.233416
Ne    0.000000    0.000000    0.000000
           2
 Time =    5154.0000000000000     
Ne    0.000000    0.000000    4.233416
Ne    0.000000    0.000000    0.000000
           2
 Time =    5155.0000000000000     
Ne    0.000000    0.000000    4.233416
Ne    0.000000    0.000000    0.000000
           2
 Time =    5156.0000000000000     
Ne    0.000000    0.000000    4.233416
Ne    0.000000    0.000000    0.000000
           2
 Time =    5157.0000000000000     
Ne    0.000000    0.000000    4.233416
Ne    0.000000    0.000000    0.000000
           2
 Time =    5158.0000000000000     
Ne    0.000000    0.000000    4.233416
Ne    0.000000    0.000000    0.000000
           2
 Time =    5159.0000000000000     
Ne    0.000000    0.000000    4.233416
Ne    0.000000    0.000000    0.000000
           2
 Time =    5160.0000000000000     
Ne    0.000000    0.000000    4.233416
Ne    0.000000    0.000000    0.000000
           2
 Time =    5161.0000000000000     
Ne    0.000000    0.000000    4.233416
Ne    0.000000    0.000000    0.000000
           2
 Time =    5162.0000000000000     
Ne    0.000000    0.000000    4.233416
Ne    0.000000    0.000000    0.000000
           2
 Time =    5163.0000000000000     
Ne    0.000000    0.000000    4.233416
Ne    0.000000    0.000000    0.000000
           2
 Time =    5164.0000000000000     
Ne    0.000000    0.000000    4.233416
Ne    0.000000    0.000000    0.000000
           2
 Time =    5165.0000000000000     
Ne    0.000000    0.000000    4.233416
Ne    0.000000    0.000000    0.000000
           2
 Time =    5166.0000000000000     
Ne    0.000000    0.000000    4.233416
Ne    0.000000    0.000000    0.000000
           2
 Time =    5167.0000000000000     
Ne    0.000000    0.000000    4.233416
Ne    0.000000    0.000000    0.000000
           2
 Time =    5168.0000000000000     
Ne    0.000000    0.000000    4.233416
Ne    0.000000    0.000000    0.000000
           2
 Time =    5169.0000000000000     
Ne    0.000000    0.000000    4.233416
Ne    0.000000    0.000000    0.000000
           2
 Time =    5170.0000000000000     
Ne    0.000000    0.000000    4.233416
Ne    0.000000    0.000000    0.000000
           2
 Time =    5171.0000000000000     
Ne    0.000000    0.000000    4.233416
Ne    0.000000    0.000000    0.000000
           2
 Time =    5172.0000000000000     
Ne    0.000000    0.000000    4.233416
Ne    0.000000    0.000000    0.000000
           2
 Time =    5173.0000000000000     
Ne    0.000000    0.000000    4.233416
Ne    0.000000    0.000000    0.000000
           2
 Time =    5174.0000000000000     
Ne    0.000000    0.000000    4.233416
Ne    0.000000    0.000000    0.000000
           2
 Time =    5175.0000000000000     
Ne    0.000000    0.000000    4.233416
Ne    0.000000    0.000000    0.000000
           2
 Time =    5176.0000000000000     
Ne    0.000000    0.000000    4.233416
Ne    0.000000    0.000000    0.000000
           2
 Time =    5177.0000000000000     
Ne    0.000000    0.000000    4.233416
Ne    0.000000    0.000000    0.000000
           2
 Time =    5178.0000000000000     
Ne    0.000000    0.000000    4.233416
Ne    0.000000    0.000000    0.000000
           2
 Time =    5179.0000000000000     
Ne    0.000000    0.000000    4.233416
Ne    0.000000    0.000000    0.000000
           2
 Time =    5180.0000000000000     
Ne    0.000000    0.000000    4.233416
Ne    0.000000    0.000000    0.000000
           2
 Time =    5181.0000000000000     
Ne    0.000000    0.000000    4.233416
Ne    0.000000    0.000000    0.000000
           2
 Time =    5182.0000000000000     
Ne    0.000000    0.000000    4.233416
Ne    0.000000    0.000000    0.000000
           2
 Time =    5183.0000000000000     
Ne    0.000000    0.000000    4.233416
Ne    0.000000    0.000000    0.000000
           2
 Time =    5184.0000000000000     
Ne    0.000000    0.000000    4.233416
Ne    0.000000    0.000000    0.000000
           2
 Time =    5185.0000000000000     
Ne    0.000000    0.000000    4.233416
Ne    0.000000    0.000000    0.000000
           2
 Time =    5186.0000000000000     
Ne    0.000000    0.000000    4.233416
Ne    0.000000    0.000000    0.000000
           2
 Time =    5187.0000000000000     
Ne    0.000000    0.000000    4.233416
Ne    0.000000    0.000000    0.000000
           2
 Time =    5188.0000000000000     
Ne    0.000000    0.000000    4.233416
Ne    0.000000    0.000000    0.000000
           2
 Time =    5189.0000000000000     
Ne    0.000000    0.000000    4.233416
Ne    0.000000    0.000000    0.000000
           2
 Time =    5190.0000000000000     
Ne    0.000000    0.000000    4.233416
Ne    0.000000    0.000000    0.000000
           2
 Time =    5191.0000000000000     
Ne    0.000000    0.000000    4.233416
Ne    0.000000    0.000000    0.000000
           2
 Time =    5192.0000000000000     
Ne    0.000000    0.000000    4.233416
Ne    0.000000    0.000000    0.000000
           2
 Time =    5193.0000000000000     
Ne    0.000000    0.000000    4.233416
Ne    0.000000    0.000000    0.000000
           2
 Time =    5194.0000000000000     
Ne    0.000000    0.000000    4.233416
Ne    0.000000    0.000000    0.000000
           2
 Time =    5195.0000000000000     
Ne    0.000000    0.000000    4.233416
Ne    0.000000    0.000000    0.000000
           2
 Time =    5196.0000000000000     
Ne    0.000000    0.000000    4.233416
Ne    0.000000    0.000000    0.000000
           2
 Time =    5197.0000000000000     
Ne    0.000000    0.000000    4.233416
Ne    0.000000    0.000000    0.000000
           2
 Time =    5198.0000000000000     
Ne    0.000000    0.000000    4.233416
Ne    0.000000    0.000000    0.000000
           2
 Time =    5199.0000000000000     
Ne    0.000000    0.000000    4.233416
Ne    0.000000    0.000000    0.000000
           2
 Time =    5200.0000000000000     
Ne    0.000000    0.000000    4.233416
Ne    0.000000    0.000000    0.000000
           2
 Time =    5201.0000000000000     
Ne    0.000000    0.000000    4.233416
Ne    0.000000    0.000000    0.000000
           2
 Time =    5202.0000000000000     
Ne    0.000000    0.000000    4.233416
Ne    0.000000    0.000000    0.000000
           2
 Time =    5203.0000000000000     
Ne    0.000000    0.000000    4.233416
Ne    0.000000    0.000000    0.000000
           2
 Time =    5204.0000000000000     
Ne    0.000000    0.000000    4.233416
Ne    0.000000    0.000000    0.000000
           2
 Time =    5205.0000000000000     
Ne    0.000000    0.000000    4.233416
Ne    0.000000    0.000000    0.000000
           2
 Time =    5206.0000000000000     
Ne    0.000000    0.000000    4.233416
Ne    0.000000    0.000000    0.000000
           2
 Time =    5207.0000000000000     
Ne    0.000000    0.000000    4.233416
Ne    0.000000    0.000000    0.000000
           2
 Time =    5208.0000000000000     
Ne    0.000000    0.000000    4.233416
Ne    0.000000    0.000000    0.000000
           2
 Time =    5209.0000000000000     
Ne    0.000000    0.000000    4.233416
Ne    0.000000    0.000000    0.000000
           2
 Time =    5210.0000000000000     
Ne    0.000000    0.000000    4.233416
Ne    0.000000    0.000000    0.000000
           2
 Time =    5211.0000000000000     
Ne    0.000000    0.000000    4.233416
Ne    0.000000    0.000000    0.000000
           2
 Time =    5212.0000000000000     
Ne    0.000000    0.000000    4.233416
Ne    0.000000    0.000000    0.000000
           2
 Time =    5213.0000000000000     
Ne    0.000000    0.000000    4.233416
Ne    0.000000    0.000000    0.000000
           2
 Time =    5214.0000000000000     
Ne    0.000000    0.000000    4.233416
Ne    0.000000    0.000000    0.000000
           2
 Time =    5215.0000000000000     
Ne    0.000000    0.000000    4.233416
Ne    0.000000    0.000000    0.000000
           2
 Time =    5216.0000000000000     
Ne    0.000000    0.000000    4.233416
Ne    0.000000    0.000000    0.000000
           2
 Time =    5217.0000000000000     
Ne    0.000000    0.000000    4.233416
Ne    0.000000    0.000000    0.000000
           2
 Time =    5218.0000000000000     
Ne    0.000000    0.000000    4.233416
Ne    0.000000    0.000000    0.000000
           2
 Time =    5219.0000000000000     
Ne    0.000000    0.000000    4.233416
Ne    0.000000    0.000000    0.000000
           2
 Time =    5220.0000000000000     
Ne    0.000000    0.000000    4.233416
Ne    0.000000    0.000000    0.000000
           2
 Time =    5221.0000000000000     
Ne    0.000000    0.000000    4.233416
Ne    0.000000    0.000000    0.000000
           2
 Time =    5222.0000000000000     
Ne    0.000000    0.000000    4.233416
Ne    0.000000    0.000000    0.000000
           2
 Time =    5223.0000000000000     
Ne    0.000000    0.000000    4.233416
Ne    0.000000    0.000000    0.000000
           2
 Time =    5224.0000000000000     
Ne    0.000000    0.000000    4.233416
Ne    0.000000    0.000000    0.000000
           2
 Time =    5225.0000000000000     
Ne    0.000000    0.000000    4.233416
Ne    0.000000    0.000000    0.000000
           2
 Time =    5226.0000000000000     
Ne    0.000000    0.000000    4.233416
Ne    0.000000    0.000000    0.000000
           2
 Time =    5227.0000000000000     
Ne    0.000000    0.000000    4.233416
Ne    0.000000    0.000000    0.000000
           2
 Time =    5228.0000000000000     
Ne    0.000000    0.000000    4.233416
Ne    0.000000    0.000000    0.000000
           2
 Time =    5229.0000000000000     
Ne    0.000000    0.000000    4.233416
Ne    0.000000    0.000000    0.000000
           2
 Time =    5230.0000000000000     
Ne    0.000000    0.000000    4.233416
Ne    0.000000    0.000000    0.000000
           2
 Time =    5231.0000000000000     
Ne    0.000000    0.000000    4.233416
Ne    0.000000    0.000000    0.000000
           2
 Time =    5232.0000000000000     
Ne    0.000000    0.000000    4.233416
Ne    0.000000    0.000000    0.000000
           2
 Time =    5233.0000000000000     
Ne    0.000000    0.000000    4.233416
Ne    0.000000    0.000000    0.000000
           2
 Time =    5234.0000000000000     
Ne    0.000000    0.000000    4.233416
Ne    0.000000    0.000000    0.000000
           2
 Time =    5235.0000000000000     
Ne    0.000000    0.000000    4.233416
Ne    0.000000    0.000000    0.000000
           2
 Time =    5236.0000000000000     
Ne    0.000000    0.000000    4.233416
Ne    0.000000    0.000000    0.000000
           2
 Time =    5237.0000000000000     
Ne    0.000000    0.000000    4.233416
Ne    0.000000    0.000000    0.000000
           2
 Time =    5238.0000000000000     
Ne    0.000000    0.000000    4.233416
Ne    0.000000    0.000000    0.000000
           2
 Time =    5239.0000000000000     
Ne    0.000000    0.000000    4.233416
Ne    0.000000    0.000000    0.000000
           2
 Time =    5240.0000000000000     
Ne    0.000000    0.000000    4.233416
Ne    0.000000    0.000000    0.000000
           2
 Time =    5241.0000000000000     
Ne    0.000000    0.000000    4.233416
Ne    0.000000    0.000000    0.000000
           2
 Time =    5242.0000000000000     
Ne    0.000000    0.000000    4.233416
Ne    0.000000    0.000000    0.000000
           2
 Time =    5243.0000000000000     
Ne    0.000000    0.000000    4.233416
Ne    0.000000    0.000000    0.000000
           2
 Time =    5244.0000000000000     
Ne    0.000000    0.000000    4.233416
Ne    0.000000    0.000000    0.000000
           2
 Time =    5245.0000000000000     
Ne    0.000000    0.000000    4.233416
Ne    0.000000    0.000000    0.000000
           2
 Time =    5246.0000000000000     
Ne    0.000000    0.000000    4.233416
Ne    0.000000    0.000000    0.000000
           2
 Time =    5247.0000000000000     
Ne    0.000000    0.000000    4.233416
Ne    0.000000    0.000000    0.000000
           2
 Time =    5248.0000000000000     
Ne    0.000000    0.000000    4.233416
Ne    0.000000    0.000000    0.000000
           2
 Time =    5249.0000000000000     
Ne    0.000000    0.000000    4.233416
Ne    0.000000    0.000000    0.000000
           2
 Time =    5250.0000000000000     
Ne    0.000000    0.000000    4.233416
Ne    0.000000    0.000000    0.000000
           2
 Time =    5251.0000000000000     
Ne    0.000000    0.000000    4.233416
Ne    0.000000    0.000000    0.000000
           2
 Time =    5252.0000000000000     
Ne    0.000000    0.000000    4.233416
Ne    0.000000    0.000000    0.000000
           2
 Time =    5253.0000000000000     
Ne    0.000000    0.000000    4.233416
Ne    0.000000    0.000000    0.000000
           2
 Time =    5254.0000000000000     
Ne    0.000000    0.000000    4.233416
Ne    0.000000    0.000000    0.000000
           2
 Time =    5255.0000000000000     
Ne    0.000000    0.000000    4.233416
Ne    0.000000    0.000000    0.000000
           2
 Time =    5256.0000000000000     
Ne    0.000000    0.000000    4.233416
Ne    0.000000    0.000000    0.000000
           2
 Time =    5257.0000000000000     
Ne    0.000000    0.000000    4.233416
Ne    0.000000    0.000000    0.000000
           2
 Time =    5258.0000000000000     
Ne    0.000000    0.000000    4.233416
Ne    0.000000    0.000000    0.000000
           2
 Time =    5259.0000000000000     
Ne    0.000000    0.000000    4.233416
Ne    0.000000    0.000000    0.000000
           2
 Time =    5260.0000000000000     
Ne    0.000000    0.000000    4.233416
Ne    0.000000    0.000000    0.000000
           2
 Time =    5261.0000000000000     
Ne    0.000000    0.000000    4.233416
Ne    0.000000    0.000000    0.000000
           2
 Time =    5262.0000000000000     
Ne    0.000000    0.000000    4.233416
Ne    0.000000    0.000000    0.000000
           2
 Time =    5263.0000000000000     
Ne    0.000000    0.000000    4.233416
Ne    0.000000    0.000000    0.000000
           2
 Time =    5264.0000000000000     
Ne    0.000000    0.000000    4.233416
Ne    0.000000    0.000000    0.000000
           2
 Time =    5265.0000000000000     
Ne    0.000000    0.000000    4.233416
Ne    0.000000    0.000000    0.000000
           2
 Time =    5266.0000000000000     
Ne    0.000000    0.000000    4.233416
Ne    0.000000    0.000000    0.000000
           2
 Time =    5267.0000000000000     
Ne    0.000000    0.000000    4.233416
Ne    0.000000    0.000000    0.000000
           2
 Time =    5268.0000000000000     
Ne    0.000000    0.000000    4.233416
Ne    0.000000    0.000000    0.000000
           2
 Time =    5269.0000000000000     
Ne    0.000000    0.000000    4.233416
Ne    0.000000    0.000000    0.000000
           2
 Time =    5270.0000000000000     
Ne    0.000000    0.000000    4.233416
Ne    0.000000    0.000000    0.000000
           2
 Time =    5271.0000000000000     
Ne    0.000000    0.000000    4.233416
Ne    0.000000    0.000000    0.000000
           2
 Time =    5272.0000000000000     
Ne    0.000000    0.000000    4.233416
Ne    0.000000    0.000000    0.000000
           2
 Time =    5273.0000000000000     
Ne    0.000000    0.000000    4.233416
Ne    0.000000    0.000000    0.000000
           2
 Time =    5274.0000000000000     
Ne    0.000000    0.000000    4.233416
Ne    0.000000    0.000000    0.000000
           2
 Time =    5275.0000000000000     
Ne    0.000000    0.000000    4.233416
Ne    0.000000    0.000000    0.000000
           2
 Time =    5276.0000000000000     
Ne    0.000000    0.000000    4.233416
Ne    0.000000    0.000000    0.000000
           2
 Time =    5277.0000000000000     
Ne    0.000000    0.000000    4.233416
Ne    0.000000    0.000000    0.000000
           2
 Time =    5278.0000000000000     
Ne    0.000000    0.000000    4.233416
Ne    0.000000    0.000000    0.000000
           2
 Time =    5279.0000000000000     
Ne    0.000000    0.000000    4.233416
Ne    0.000000    0.000000    0.000000
           2
 Time =    5280.0000000000000     
Ne    0.000000    0.000000    4.233416
Ne    0.000000    0.000000    0.000000
           2
 Time =    5281.0000000000000     
Ne    0.000000    0.000000    4.233416
Ne    0.000000    0.000000    0.000000
           2
 Time =    5282.0000000000000     
Ne    0.000000    0.000000    4.233416
Ne    0.000000    0.000000    0.000000
           2
 Time =    5283.0000000000000     
Ne    0.000000    0.000000    4.233416
Ne    0.000000    0.000000    0.000000
           2
 Time =    5284.0000000000000     
Ne    0.000000    0.000000    4.233416
Ne    0.000000    0.000000    0.000000
           2
 Time =    5285.0000000000000     
Ne    0.000000    0.000000    4.233416
Ne    0.000000    0.000000    0.000000
           2
 Time =    5286.0000000000000     
Ne    0.000000    0.000000    4.233416
Ne    0.000000    0.000000    0.000000
           2
 Time =    5287.0000000000000     
Ne    0.000000    0.000000    4.233416
Ne    0.000000    0.000000    0.000000
           2
 Time =    5288.0000000000000     
Ne    0.000000    0.000000    4.233416
Ne    0.000000    0.000000    0.000000
           2
 Time =    5289.0000000000000     
Ne    0.000000    0.000000    4.233416
Ne    0.000000    0.000000    0.000000
           2
 Time =    5290.0000000000000     
Ne    0.000000    0.000000    4.233416
Ne    0.000000    0.000000    0.000000
           2
 Time =    5291.0000000000000     
Ne    0.000000    0.000000    4.233416
Ne    0.000000    0.000000    0.000000
           2
 Time =    5292.0000000000000     
Ne    0.000000    0.000000    4.233416
Ne    0.000000    0.000000    0.000000
           2
 Time =    5293.0000000000000     
Ne    0.000000    0.000000    4.233416
Ne    0.000000    0.000000    0.000000
           2
 Time =    5294.0000000000000     
Ne    0.000000    0.000000    4.233416
Ne    0.000000    0.000000    0.000000
           2
 Time =    5295.0000000000000     
Ne    0.000000    0.000000    4.233416
Ne    0.000000    0.000000    0.000000
           2
 Time =    5296.0000000000000     
Ne    0.000000    0.000000    4.233416
Ne    0.000000    0.000000    0.000000
           2
 Time =    5297.0000000000000     
Ne    0.000000    0.000000    4.233416
Ne    0.000000    0.000000    0.000000
           2
 Time =    5298.0000000000000     
Ne    0.000000    0.000000    4.233416
Ne    0.000000    0.000000    0.000000
           2
 Time =    5299.0000000000000     
Ne    0.000000    0.000000    4.233416
Ne    0.000000    0.000000    0.000000
           2
 Time =    5300.0000000000000     
Ne    0.000000    0.000000    4.233416
Ne    0.000000    0.000000    0.000000
           2
 Time =    5301.0000000000000     
Ne    0.000000    0.000000    4.233416
Ne    0.000000    0.000000    0.000000
           2
 Time =    5302.0000000000000     
Ne    0.000000    0.000000    4.233416
Ne    0.000000    0.000000    0.000000
           2
 Time =    5303.0000000000000     
Ne    0.000000    0.000000    4.233416
Ne    0.000000    0.000000    0.000000
           2
 Time =    5304.0000000000000     
Ne    0.000000    0.000000    4.233416
Ne    0.000000    0.000000    0.000000
           2
 Time =    5305.0000000000000     
Ne    0.000000    0.000000    4.233416
Ne    0.000000    0.000000    0.000000
           2
 Time =    5306.0000000000000     
Ne    0.000000    0.000000    4.233416
Ne    0.000000    0.000000    0.000000
           2
 Time =    5307.0000000000000     
Ne    0.000000    0.000000    4.233416
Ne    0.000000    0.000000    0.000000
           2
 Time =    5308.0000000000000     
Ne    0.000000    0.000000    4.233416
Ne    0.000000    0.000000    0.000000
           2
 Time =    5309.0000000000000     
Ne    0.000000    0.000000    4.233416
Ne    0.000000    0.000000    0.000000
           2
 Time =    5310.0000000000000     
Ne    0.000000    0.000000    4.233416
Ne    0.000000    0.000000    0.000000
           2
 Time =    5311.0000000000000     
Ne    0.000000    0.000000    4.233416
Ne    0.000000    0.000000    0.000000
           2
 Time =    5312.0000000000000     
Ne    0.000000    0.000000    4.233416
Ne    0.000000    0.000000    0.000000
           2
 Time =    5313.0000000000000     
Ne    0.000000    0.000000    4.233416
Ne    0.000000    0.000000    0.000000
           2
 Time =    5314.0000000000000     
Ne    0.000000    0.000000    4.233416
Ne    0.000000    0.000000    0.000000
           2
 Time =    5315.0000000000000     
Ne    0.000000    0.000000    4.233416
Ne    0.000000    0.000000    0.000000
           2
 Time =    5316.0000000000000     
Ne    0.000000    0.000000    4.233416
Ne    0.000000    0.000000    0.000000
           2
 Time =    5317.0000000000000     
Ne    0.000000    0.000000    4.233416
Ne    0.000000    0.000000    0.000000
           2
 Time =    5318.0000000000000     
Ne    0.000000    0.000000    4.233416
Ne    0.000000    0.000000    0.000000
           2
 Time =    5319.0000000000000     
Ne    0.000000    0.000000    4.233416
Ne    0.000000    0.000000    0.000000
           2
 Time =    5320.0000000000000     
Ne    0.000000    0.000000    4.233416
Ne    0.000000    0.000000    0.000000
           2
 Time =    5321.0000000000000     
Ne    0.000000    0.000000    4.233416
Ne    0.000000    0.000000    0.000000
           2
 Time =    5322.0000000000000     
Ne    0.000000    0.000000    4.233416
Ne    0.000000    0.000000    0.000000
           2
 Time =    5323.0000000000000     
Ne    0.000000    0.000000    4.233416
Ne    0.000000    0.000000    0.000000
           2
 Time =    5324.0000000000000     
Ne    0.000000    0.000000    4.233416
Ne    0.000000    0.000000    0.000000
           2
 Time =    5325.0000000000000     
Ne    0.000000    0.000000    4.233416
Ne    0.000000    0.000000    0.000000
           2
 Time =    5326.0000000000000     
Ne    0.000000    0.000000    4.233416
Ne    0.000000    0.000000    0.000000
           2
 Time =    5327.0000000000000     
Ne    0.000000    0.000000    4.233416
Ne    0.000000    0.000000    0.000000
           2
 Time =    5328.0000000000000     
Ne    0.000000    0.000000    4.233416
Ne    0.000000    0.000000    0.000000
           2
 Time =    5329.0000000000000     
Ne    0.000000    0.000000    4.233416
Ne    0.000000    0.000000    0.000000
           2
 Time =    5330.0000000000000     
Ne    0.000000    0.000000    4.233416
Ne    0.000000    0.000000    0.000000
           2
 Time =    5331.0000000000000     
Ne    0.000000    0.000000    4.233416
Ne    0.000000    0.000000    0.000000
           2
 Time =    5332.0000000000000     
Ne    0.000000    0.000000    4.233416
Ne    0.000000    0.000000    0.000000
           2
 Time =    5333.0000000000000     
Ne    0.000000    0.000000    4.233416
Ne    0.000000    0.000000    0.000000
           2
 Time =    5334.0000000000000     
Ne    0.000000    0.000000    4.233416
Ne    0.000000    0.000000    0.000000
           2
 Time =    5335.0000000000000     
Ne    0.000000    0.000000    4.233416
Ne    0.000000    0.000000    0.000000
           2
 Time =    5336.0000000000000     
Ne    0.000000    0.000000    4.233416
Ne    0.000000    0.000000    0.000000
           2
 Time =    5337.0000000000000     
Ne    0.000000    0.000000    4.233416
Ne    0.000000    0.000000    0.000000
           2
 Time =    5338.0000000000000     
Ne    0.000000    0.000000    4.233416
Ne    0.000000    0.000000    0.000000
           2
 Time =    5339.0000000000000     
Ne    0.000000    0.000000    4.233416
Ne    0.000000    0.000000    0.000000
           2
 Time =    5340.0000000000000     
Ne    0.000000    0.000000    4.233416
Ne    0.000000    0.000000    0.000000
           2
 Time =    5341.0000000000000     
Ne    0.000000    0.000000    4.233416
Ne    0.000000    0.000000    0.000000
           2
 Time =    5342.0000000000000     
Ne    0.000000    0.000000    4.233416
Ne    0.000000    0.000000    0.000000
           2
 Time =    5343.0000000000000     
Ne    0.000000    0.000000    4.233416
Ne    0.000000    0.000000    0.000000
           2
 Time =    5344.0000000000000     
Ne    0.000000    0.000000    4.233416
Ne    0.000000    0.000000    0.000000
           2
 Time =    5345.0000000000000     
Ne    0.000000    0.000000    4.233416
Ne    0.000000    0.000000    0.000000
           2
 Time =    5346.0000000000000     
Ne    0.000000    0.000000    4.233416
Ne    0.000000    0.000000    0.000000
           2
 Time =    5347.0000000000000     
Ne    0.000000    0.000000    4.233416
Ne    0.000000    0.000000    0.000000
           2
 Time =    5348.0000000000000     
Ne    0.000000    0.000000    4.233416
Ne    0.000000    0.000000    0.000000
           2
 Time =    5349.0000000000000     
Ne    0.000000    0.000000    4.233416
Ne    0.000000    0.000000    0.000000
           2
 Time =    5350.0000000000000     
Ne    0.000000    0.000000    4.233416
Ne    0.000000    0.000000    0.000000
           2
 Time =    5351.0000000000000     
Ne    0.000000    0.000000    4.233416
Ne    0.000000    0.000000    0.000000
           2
 Time =    5352.0000000000000     
Ne    0.000000    0.000000    4.233416
Ne    0.000000    0.000000    0.000000
           2
 Time =    5353.0000000000000     
Ne    0.000000    0.000000    4.233416
Ne    0.000000    0.000000    0.000000
           2
 Time =    5354.0000000000000     
Ne    0.000000    0.000000    4.233416
Ne    0.000000    0.000000    0.000000
           2
 Time =    5355.0000000000000     
Ne    0.000000    0.000000    4.233416
Ne    0.000000    0.000000    0.000000
           2
 Time =    5356.0000000000000     
Ne    0.000000    0.000000    4.233416
Ne    0.000000    0.000000    0.000000
           2
 Time =    5357.0000000000000     
Ne    0.000000    0.000000    4.233416
Ne    0.000000    0.000000    0.000000
           2
 Time =    5358.0000000000000     
Ne    0.000000    0.000000    4.233416
Ne    0.000000    0.000000    0.000000
           2
 Time =    5359.0000000000000     
Ne    0.000000    0.000000    4.233416
Ne    0.000000    0.000000    0.000000
           2
 Time =    5360.0000000000000     
Ne    0.000000    0.000000    4.233416
Ne    0.000000    0.000000    0.000000
           2
 Time =    5361.0000000000000     
Ne    0.000000    0.000000    4.233416
Ne    0.000000    0.000000    0.000000
           2
 Time =    5362.0000000000000     
Ne    0.000000    0.000000    4.233416
Ne    0.000000    0.000000    0.000000
           2
 Time =    5363.0000000000000     
Ne    0.000000    0.000000    4.233416
Ne    0.000000    0.000000    0.000000
           2
 Time =    5364.0000000000000     
Ne    0.000000    0.000000    4.233416
Ne    0.000000    0.000000    0.000000
           2
 Time =    5365.0000000000000     
Ne    0.000000    0.000000    4.233416
Ne    0.000000    0.000000    0.000000
           2
 Time =    5366.0000000000000     
Ne    0.000000    0.000000    4.233416
Ne    0.000000    0.000000    0.000000
           2
 Time =    5367.0000000000000     
Ne    0.000000    0.000000    4.233416
Ne    0.000000    0.000000    0.000000
           2
 Time =    5368.0000000000000     
Ne    0.000000    0.000000    4.233416
Ne    0.000000    0.000000    0.000000
           2
 Time =    5369.0000000000000     
Ne    0.000000    0.000000    4.233416
Ne    0.000000    0.000000    0.000000
           2
 Time =    5370.0000000000000     
Ne    0.000000    0.000000    4.233416
Ne    0.000000    0.000000    0.000000
           2
 Time =    5371.0000000000000     
Ne    0.000000    0.000000    4.233416
Ne    0.000000    0.000000    0.000000
           2
 Time =    5372.0000000000000     
Ne    0.000000    0.000000    4.233416
Ne    0.000000    0.000000    0.000000
           2
 Time =    5373.0000000000000     
Ne    0.000000    0.000000    4.233416
Ne    0.000000    0.000000    0.000000
           2
 Time =    5374.0000000000000     
Ne    0.000000    0.000000    4.233416
Ne    0.000000    0.000000    0.000000
           2
 Time =    5375.0000000000000     
Ne    0.000000    0.000000    4.233416
Ne    0.000000    0.000000    0.000000
           2
 Time =    5376.0000000000000     
Ne    0.000000    0.000000    4.233416
Ne    0.000000    0.000000    0.000000
           2
 Time =    5377.0000000000000     
Ne    0.000000    0.000000    4.233416
Ne    0.000000    0.000000    0.000000
           2
 Time =    5378.0000000000000     
Ne    0.000000    0.000000    4.233416
Ne    0.000000    0.000000    0.000000
           2
 Time =    5379.0000000000000     
Ne    0.000000    0.000000    4.233416
Ne    0.000000    0.000000    0.000000
           2
 Time =    5380.0000000000000     
Ne    0.000000    0.000000    4.233416
Ne    0.000000    0.000000    0.000000
           2
 Time =    5381.0000000000000     
Ne    0.000000    0.000000    4.233416
Ne    0.000000    0.000000    0.000000
           2
 Time =    5382.0000000000000     
Ne    0.000000    0.000000    4.233416
Ne    0.000000    0.000000    0.000000
           2
 Time =    5383.0000000000000     
Ne    0.000000    0.000000    4.233416
Ne    0.000000    0.000000    0.000000
           2
 Time =    5384.0000000000000     
Ne    0.000000    0.000000    4.233416
Ne    0.000000    0.000000    0.000000
           2
 Time =    5385.0000000000000     
Ne    0.000000    0.000000    4.233416
Ne    0.000000    0.000000    0.000000
           2
 Time =    5386.0000000000000     
Ne    0.000000    0.000000    4.233416
Ne    0.000000    0.000000    0.000000
           2
 Time =    5387.0000000000000     
Ne    0.000000    0.000000    4.233416
Ne    0.000000    0.000000    0.000000
           2
 Time =    5388.0000000000000     
Ne    0.000000    0.000000    4.233416
Ne    0.000000    0.000000    0.000000
           2
 Time =    5389.0000000000000     
Ne    0.000000    0.000000    4.233416
Ne    0.000000    0.000000    0.000000
           2
 Time =    5390.0000000000000     
Ne    0.000000    0.000000    4.233416
Ne    0.000000    0.000000    0.000000
           2
 Time =    5391.0000000000000     
Ne    0.000000    0.000000    4.233416
Ne    0.000000    0.000000    0.000000
           2
 Time =    5392.0000000000000     
Ne    0.000000    0.000000    4.233416
Ne    0.000000    0.000000    0.000000
           2
 Time =    5393.0000000000000     
Ne    0.000000    0.000000    4.233416
Ne    0.000000    0.000000    0.000000
           2
 Time =    5394.0000000000000     
Ne    0.000000    0.000000    4.233416
Ne    0.000000    0.000000    0.000000
           2
 Time =    5395.0000000000000     
Ne    0.000000    0.000000    4.233416
Ne    0.000000    0.000000    0.000000
           2
 Time =    5396.0000000000000     
Ne    0.000000    0.000000    4.233416
Ne    0.000000    0.000000    0.000000
           2
 Time =    5397.0000000000000     
Ne    0.000000    0.000000    4.233416
Ne    0.000000    0.000000    0.000000
           2
 Time =    5398.0000000000000     
Ne    0.000000    0.000000    4.233416
Ne    0.000000    0.000000    0.000000
           2
 Time =    5399.0000000000000     
Ne    0.000000    0.000000    4.233416
Ne    0.000000    0.000000    0.000000
           2
 Time =    5400.0000000000000     
Ne    0.000000    0.000000    4.233416
Ne    0.000000    0.000000    0.000000
           2
 Time =    5401.0000000000000     
Ne    0.000000    0.000000    4.233416
Ne    0.000000    0.000000    0.000000
           2
 Time =    5402.0000000000000     
Ne    0.000000    0.000000    4.233416
Ne    0.000000    0.000000    0.000000
           2
 Time =    5403.0000000000000     
Ne    0.000000    0.000000    4.233416
Ne    0.000000    0.000000    0.000000
           2
 Time =    5404.0000000000000     
Ne    0.000000    0.000000    4.233416
Ne    0.000000    0.000000    0.000000
           2
 Time =    5405.0000000000000     
Ne    0.000000    0.000000    4.233416
Ne    0.000000    0.000000    0.000000
           2
 Time =    5406.0000000000000     
Ne    0.000000    0.000000    4.233416
Ne    0.000000    0.000000    0.000000
           2
 Time =    5407.0000000000000     
Ne    0.000000    0.000000    4.233416
Ne    0.000000    0.000000    0.000000
           2
 Time =    5408.0000000000000     
Ne    0.000000    0.000000    4.233416
Ne    0.000000    0.000000    0.000000
           2
 Time =    5409.0000000000000     
Ne    0.000000    0.000000    4.233416
Ne    0.000000    0.000000    0.000000
           2
 Time =    5410.0000000000000     
Ne    0.000000    0.000000    4.233416
Ne    0.000000    0.000000    0.000000
           2
 Time =    5411.0000000000000     
Ne    0.000000    0.000000    4.233416
Ne    0.000000    0.000000    0.000000
           2
 Time =    5412.0000000000000     
Ne    0.000000    0.000000    4.233416
Ne    0.000000    0.000000    0.000000
           2
 Time =    5413.0000000000000     
Ne    0.000000    0.000000    4.233416
Ne    0.000000    0.000000    0.000000
           2
 Time =    5414.0000000000000     
Ne    0.000000    0.000000    4.233416
Ne    0.000000    0.000000    0.000000
           2
 Time =    5415.0000000000000     
Ne    0.000000    0.000000    4.233416
Ne    0.000000    0.000000    0.000000
           2
 Time =    5416.0000000000000     
Ne    0.000000    0.000000    4.233416
Ne    0.000000    0.000000    0.000000
           2
 Time =    5417.0000000000000     
Ne    0.000000    0.000000    4.233416
Ne    0.000000    0.000000    0.000000
           2
 Time =    5418.0000000000000     
Ne    0.000000    0.000000    4.233416
Ne    0.000000    0.000000    0.000000
           2
 Time =    5419.0000000000000     
Ne    0.000000    0.000000    4.233416
Ne    0.000000    0.000000    0.000000
           2
 Time =    5420.0000000000000     
Ne    0.000000    0.000000    4.233416
Ne    0.000000    0.000000    0.000000
           2
 Time =    5421.0000000000000     
Ne    0.000000    0.000000    4.233416
Ne    0.000000    0.000000    0.000000
           2
 Time =    5422.0000000000000     
Ne    0.000000    0.000000    4.233416
Ne    0.000000    0.000000    0.000000
           2
 Time =    5423.0000000000000     
Ne    0.000000    0.000000    4.233416
Ne    0.000000    0.000000    0.000000
           2
 Time =    5424.0000000000000     
Ne    0.000000    0.000000    4.233416
Ne    0.000000    0.000000    0.000000
           2
 Time =    5425.0000000000000     
Ne    0.000000    0.000000    4.233416
Ne    0.000000    0.000000    0.000000
           2
 Time =    5426.0000000000000     
Ne    0.000000    0.000000    4.233416
Ne    0.000000    0.000000    0.000000
           2
 Time =    5427.0000000000000     
Ne    0.000000    0.000000    4.233416
Ne    0.000000    0.000000    0.000000
           2
 Time =    5428.0000000000000     
Ne    0.000000    0.000000    4.233416
Ne    0.000000    0.000000    0.000000
           2
 Time =    5429.0000000000000     
Ne    0.000000    0.000000    4.233416
Ne    0.000000    0.000000    0.000000
           2
 Time =    5430.0000000000000     
Ne    0.000000    0.000000    4.233416
Ne    0.000000    0.000000    0.000000
           2
 Time =    5431.0000000000000     
Ne    0.000000    0.000000    4.233416
Ne    0.000000    0.000000    0.000000
           2
 Time =    5432.0000000000000     
Ne    0.000000    0.000000    4.233416
Ne    0.000000    0.000000    0.000000
           2
 Time =    5433.0000000000000     
Ne    0.000000    0.000000    4.233416
Ne    0.000000    0.000000    0.000000
           2
 Time =    5434.0000000000000     
Ne    0.000000    0.000000    4.233416
Ne    0.000000    0.000000    0.000000
           2
 Time =    5435.0000000000000     
Ne    0.000000    0.000000    4.233416
Ne    0.000000    0.000000    0.000000
           2
 Time =    5436.0000000000000     
Ne    0.000000    0.000000    4.233416
Ne    0.000000    0.000000    0.000000
           2
 Time =    5437.0000000000000     
Ne    0.000000    0.000000    4.233416
Ne    0.000000    0.000000    0.000000
           2
 Time =    5438.0000000000000     
Ne    0.000000    0.000000    4.233416
Ne    0.000000    0.000000    0.000000
           2
 Time =    5439.0000000000000     
Ne    0.000000    0.000000    4.233416
Ne    0.000000    0.000000    0.000000
           2
 Time =    5440.0000000000000     
Ne    0.000000    0.000000    4.233416
Ne    0.000000    0.000000    0.000000
           2
 Time =    5441.0000000000000     
Ne    0.000000    0.000000    4.233416
Ne    0.000000    0.000000    0.000000
           2
 Time =    5442.0000000000000     
Ne    0.000000    0.000000    4.233416
Ne    0.000000    0.000000    0.000000
           2
 Time =    5443.0000000000000     
Ne    0.000000    0.000000    4.233416
Ne    0.000000    0.000000    0.000000
           2
 Time =    5444.0000000000000     
Ne    0.000000    0.000000    4.233416
Ne    0.000000    0.000000    0.000000
           2
 Time =    5445.0000000000000     
Ne    0.000000    0.000000    4.233416
Ne    0.000000    0.000000    0.000000
           2
 Time =    5446.0000000000000     
Ne    0.000000    0.000000    4.233416
Ne    0.000000    0.000000    0.000000
           2
 Time =    5447.0000000000000     
Ne    0.000000    0.000000    4.233416
Ne    0.000000    0.000000    0.000000
           2
 Time =    5448.0000000000000     
Ne    0.000000    0.000000    4.233416
Ne    0.000000    0.000000    0.000000
           2
 Time =    5449.0000000000000     
Ne    0.000000    0.000000    4.233416
Ne    0.000000    0.000000    0.000000
           2
 Time =    5450.0000000000000     
Ne    0.000000    0.000000    4.233416
Ne    0.000000    0.000000    0.000000
           2
 Time =    5451.0000000000000     
Ne    0.000000    0.000000    4.233416
Ne    0.000000    0.000000    0.000000
           2
 Time =    5452.0000000000000     
Ne    0.000000    0.000000    4.233416
Ne    0.000000    0.000000    0.000000
           2
 Time =    5453.0000000000000     
Ne    0.000000    0.000000    4.233416
Ne    0.000000    0.000000    0.000000
           2
 Time =    5454.0000000000000     
Ne    0.000000    0.000000    4.233416
Ne    0.000000    0.000000    0.000000
           2
 Time =    5455.0000000000000     
Ne    0.000000    0.000000    4.233416
Ne    0.000000    0.000000    0.000000
           2
 Time =    5456.0000000000000     
Ne    0.000000    0.000000    4.233416
Ne    0.000000    0.000000    0.000000
           2
 Time =    5457.0000000000000     
Ne    0.000000    0.000000    4.233416
Ne    0.000000    0.000000    0.000000
           2
 Time =    5458.0000000000000     
Ne    0.000000    0.000000    4.233416
Ne    0.000000    0.000000    0.000000
           2
 Time =    5459.0000000000000     
Ne    0.000000    0.000000    4.233416
Ne    0.000000    0.000000    0.000000
           2
 Time =    5460.0000000000000     
Ne    0.000000    0.000000    4.233416
Ne    0.000000    0.000000    0.000000
           2
 Time =    5461.0000000000000     
Ne    0.000000    0.000000    4.233416
Ne    0.000000    0.000000    0.000000
           2
 Time =    5462.0000000000000     
Ne    0.000000    0.000000    4.233416
Ne    0.000000    0.000000    0.000000
           2
 Time =    5463.0000000000000     
Ne    0.000000    0.000000    4.233416
Ne    0.000000    0.000000    0.000000
           2
 Time =    5464.0000000000000     
Ne    0.000000    0.000000    4.233416
Ne    0.000000    0.000000    0.000000
           2
 Time =    5465.0000000000000     
Ne    0.000000    0.000000    4.233416
Ne    0.000000    0.000000    0.000000
           2
 Time =    5466.0000000000000     
Ne    0.000000    0.000000    4.233416
Ne    0.000000    0.000000    0.000000
           2
 Time =    5467.0000000000000     
Ne    0.000000    0.000000    4.233416
Ne    0.000000    0.000000    0.000000
           2
 Time =    5468.0000000000000     
Ne    0.000000    0.000000    4.233416
Ne    0.000000    0.000000    0.000000
           2
 Time =    5469.0000000000000     
Ne    0.000000    0.000000    4.233416
Ne    0.000000    0.000000    0.000000
           2
 Time =    5470.0000000000000     
Ne    0.000000    0.000000    4.233416
Ne    0.000000    0.000000    0.000000
           2
 Time =    5471.0000000000000     
Ne    0.000000    0.000000    4.233416
Ne    0.000000    0.000000    0.000000
           2
 Time =    5472.0000000000000     
Ne    0.000000    0.000000    4.233416
Ne    0.000000    0.000000    0.000000
           2
 Time =    5473.0000000000000     
Ne    0.000000    0.000000    4.233416
Ne    0.000000    0.000000    0.000000
           2
 Time =    5474.0000000000000     
Ne    0.000000    0.000000    4.233416
Ne    0.000000    0.000000    0.000000
           2
 Time =    5475.0000000000000     
Ne    0.000000    0.000000    4.233416
Ne    0.000000    0.000000    0.000000
           2
 Time =    5476.0000000000000     
Ne    0.000000    0.000000    4.233416
Ne    0.000000    0.000000    0.000000
           2
 Time =    5477.0000000000000     
Ne    0.000000    0.000000    4.233416
Ne    0.000000    0.000000    0.000000
           2
 Time =    5478.0000000000000     
Ne    0.000000    0.000000    4.233416
Ne    0.000000    0.000000    0.000000
           2
 Time =    5479.0000000000000     
Ne    0.000000    0.000000    4.233416
Ne    0.000000    0.000000    0.000000
           2
 Time =    5480.0000000000000     
Ne    0.000000    0.000000    4.233416
Ne    0.000000    0.000000    0.000000
           2
 Time =    5481.0000000000000     
Ne    0.000000    0.000000    4.233416
Ne    0.000000    0.000000    0.000000
           2
 Time =    5482.0000000000000     
Ne    0.000000    0.000000    4.233416
Ne    0.000000    0.000000    0.000000
           2
 Time =    5483.0000000000000     
Ne    0.000000    0.000000    4.233416
Ne    0.000000    0.000000    0.000000
           2
 Time =    5484.0000000000000     
Ne    0.000000    0.000000    4.233416
Ne    0.000000    0.000000    0.000000
           2
 Time =    5485.0000000000000     
Ne    0.000000    0.000000    4.233416
Ne    0.000000    0.000000    0.000000
           2
 Time =    5486.0000000000000     
Ne    0.000000    0.000000    4.233416
Ne    0.000000    0.000000    0.000000
           2
 Time =    5487.0000000000000     
Ne    0.000000    0.000000    4.233416
Ne    0.000000    0.000000    0.000000
           2
 Time =    5488.0000000000000     
Ne    0.000000    0.000000    4.233416
Ne    0.000000    0.000000    0.000000
           2
 Time =    5489.0000000000000     
Ne    0.000000    0.000000    4.233416
Ne    0.000000    0.000000    0.000000
           2
 Time =    5490.0000000000000     
Ne    0.000000    0.000000    4.233416
Ne    0.000000    0.000000    0.000000
           2
 Time =    5491.0000000000000     
Ne    0.000000    0.000000    4.233416
Ne    0.000000    0.000000    0.000000
           2
 Time =    5492.0000000000000     
Ne    0.000000    0.000000    4.233416
Ne    0.000000    0.000000    0.000000
           2
 Time =    5493.0000000000000     
Ne    0.000000    0.000000    4.233416
Ne    0.000000    0.000000    0.000000
           2
 Time =    5494.0000000000000     
Ne    0.000000    0.000000    4.233416
Ne    0.000000    0.000000    0.000000
           2
 Time =    5495.0000000000000     
Ne    0.000000    0.000000    4.233416
Ne    0.000000    0.000000    0.000000
           2
 Time =    5496.0000000000000     
Ne    0.000000    0.000000    4.233416
Ne    0.000000    0.000000    0.000000
           2
 Time =    5497.0000000000000     
Ne    0.000000    0.000000    4.233416
Ne    0.000000    0.000000    0.000000
           2
 Time =    5498.0000000000000     
Ne    0.000000    0.000000    4.233416
Ne    0.000000    0.000000    0.000000
           2
 Time =    5499.0000000000000     
Ne    0.000000    0.000000    4.233416
Ne    0.000000    0.000000    0.000000
           2
 Time =    5500.0000000000000     
Ne    0.000000    0.000000    4.233416
Ne    0.000000    0.000000    0.000000
           2
 Time =    5501.0000000000000     
Ne    0.000000    0.000000    4.233416
Ne    0.000000    0.000000    0.000000
           2
 Time =    5502.0000000000000     
Ne    0.000000    0.000000    4.233416
Ne    0.000000    0.000000    0.000000
           2
 Time =    5503.0000000000000     
Ne    0.000000    0.000000    4.233416
Ne    0.000000    0.000000    0.000000
           2
 Time =    5504.0000000000000     
Ne    0.000000    0.000000    4.233416
Ne    0.000000    0.000000    0.000000
           2
 Time =    5505.0000000000000     
Ne    0.000000    0.000000    4.233416
Ne    0.000000    0.000000    0.000000
           2
 Time =    5506.0000000000000     
Ne    0.000000    0.000000    4.233416
Ne    0.000000    0.000000    0.000000
           2
 Time =    5507.0000000000000     
Ne    0.000000    0.000000    4.233416
Ne    0.000000    0.000000    0.000000
           2
 Time =    5508.0000000000000     
Ne    0.000000    0.000000    4.233416
Ne    0.000000    0.000000    0.000000
           2
 Time =    5509.0000000000000     
Ne    0.000000    0.000000    4.233416
Ne    0.000000    0.000000    0.000000
           2
 Time =    5510.0000000000000     
Ne    0.000000    0.000000    4.233416
Ne    0.000000    0.000000    0.000000
           2
 Time =    5511.0000000000000     
Ne    0.000000    0.000000    4.233416
Ne    0.000000    0.000000    0.000000
           2
 Time =    5512.0000000000000     
Ne    0.000000    0.000000    4.233416
Ne    0.000000    0.000000    0.000000
           2
 Time =    5513.0000000000000     
Ne    0.000000    0.000000    4.233416
Ne    0.000000    0.000000    0.000000
           2
 Time =    5514.0000000000000     
Ne    0.000000    0.000000    4.233416
Ne    0.000000    0.000000    0.000000
           2
 Time =    5515.0000000000000     
Ne    0.000000    0.000000    4.233416
Ne    0.000000    0.000000    0.000000
           2
 Time =    5516.0000000000000     
Ne    0.000000    0.000000    4.233416
Ne    0.000000    0.000000    0.000000
           2
 Time =    5517.0000000000000     
Ne    0.000000    0.000000    4.233416
Ne    0.000000    0.000000    0.000000
           2
 Time =    5518.0000000000000     
Ne    0.000000    0.000000    4.233416
Ne    0.000000    0.000000    0.000000
           2
 Time =    5519.0000000000000     
Ne    0.000000    0.000000    4.233416
Ne    0.000000    0.000000    0.000000
           2
 Time =    5520.0000000000000     
Ne    0.000000    0.000000    4.233416
Ne    0.000000    0.000000    0.000000
           2
 Time =    5521.0000000000000     
Ne    0.000000    0.000000    4.233416
Ne    0.000000    0.000000    0.000000
           2
 Time =    5522.0000000000000     
Ne    0.000000    0.000000    4.233416
Ne    0.000000    0.000000    0.000000
           2
 Time =    5523.0000000000000     
Ne    0.000000    0.000000    4.233416
Ne    0.000000    0.000000    0.000000
           2
 Time =    5524.0000000000000     
Ne    0.000000    0.000000    4.233416
Ne    0.000000    0.000000    0.000000
           2
 Time =    5525.0000000000000     
Ne    0.000000    0.000000    4.233416
Ne    0.000000    0.000000    0.000000
           2
 Time =    5526.0000000000000     
Ne    0.000000    0.000000    4.233416
Ne    0.000000    0.000000    0.000000
           2
 Time =    5527.0000000000000     
Ne    0.000000    0.000000    4.233416
Ne    0.000000    0.000000    0.000000
           2
 Time =    5528.0000000000000     
Ne    0.000000    0.000000    4.233416
Ne    0.000000    0.000000    0.000000
           2
 Time =    5529.0000000000000     
Ne    0.000000    0.000000    4.233416
Ne    0.000000    0.000000    0.000000
           2
 Time =    5530.0000000000000     
Ne    0.000000    0.000000    4.233416
Ne    0.000000    0.000000    0.000000
           2
 Time =    5531.0000000000000     
Ne    0.000000    0.000000    4.233416
Ne    0.000000    0.000000    0.000000
           2
 Time =    5532.0000000000000     
Ne    0.000000    0.000000    4.233416
Ne    0.000000    0.000000    0.000000
           2
 Time =    5533.0000000000000     
Ne    0.000000    0.000000    4.233416
Ne    0.000000    0.000000    0.000000
           2
 Time =    5534.0000000000000     
Ne    0.000000    0.000000    4.233416
Ne    0.000000    0.000000    0.000000
           2
 Time =    5535.0000000000000     
Ne    0.000000    0.000000    4.233416
Ne    0.000000    0.000000    0.000000
           2
 Time =    5536.0000000000000     
Ne    0.000000    0.000000    4.233416
Ne    0.000000    0.000000    0.000000
           2
 Time =    5537.0000000000000     
Ne    0.000000    0.000000    4.233416
Ne    0.000000    0.000000    0.000000
           2
 Time =    5538.0000000000000     
Ne    0.000000    0.000000    4.233416
Ne    0.000000    0.000000    0.000000
           2
 Time =    5539.0000000000000     
Ne    0.000000    0.000000    4.233416
Ne    0.000000    0.000000    0.000000
           2
 Time =    5540.0000000000000     
Ne    0.000000    0.000000    4.233416
Ne    0.000000    0.000000    0.000000
           2
 Time =    5541.0000000000000     
Ne    0.000000    0.000000    4.233416
Ne    0.000000    0.000000    0.000000
           2
 Time =    5542.0000000000000     
Ne    0.000000    0.000000    4.233416
Ne    0.000000    0.000000    0.000000
           2
 Time =    5543.0000000000000     
Ne    0.000000    0.000000    4.233416
Ne    0.000000    0.000000    0.000000
           2
 Time =    5544.0000000000000     
Ne    0.000000    0.000000    4.233416
Ne    0.000000    0.000000    0.000000
           2
 Time =    5545.0000000000000     
Ne    0.000000    0.000000    4.233416
Ne    0.000000    0.000000    0.000000
           2
 Time =    5546.0000000000000     
Ne    0.000000    0.000000    4.233416
Ne    0.000000    0.000000    0.000000
           2
 Time =    5547.0000000000000     
Ne    0.000000    0.000000    4.233416
Ne    0.000000    0.000000    0.000000
           2
 Time =    5548.0000000000000     
Ne    0.000000    0.000000    4.233416
Ne    0.000000    0.000000    0.000000
           2
 Time =    5549.0000000000000     
Ne    0.000000    0.000000    4.233416
Ne    0.000000    0.000000    0.000000
           2
 Time =    5550.0000000000000     
Ne    0.000000    0.000000    4.233416
Ne    0.000000    0.000000    0.000000
           2
 Time =    5551.0000000000000     
Ne    0.000000    0.000000    4.233416
Ne    0.000000    0.000000    0.000000
           2
 Time =    5552.0000000000000     
Ne    0.000000    0.000000    4.233416
Ne    0.000000    0.000000    0.000000
           2
 Time =    5553.0000000000000     
Ne    0.000000    0.000000    4.233416
Ne    0.000000    0.000000    0.000000
           2
 Time =    5554.0000000000000     
Ne    0.000000    0.000000    4.233416
Ne    0.000000    0.000000    0.000000
           2
 Time =    5555.0000000000000     
Ne    0.000000    0.000000    4.233416
Ne    0.000000    0.000000    0.000000
           2
 Time =    5556.0000000000000     
Ne    0.000000    0.000000    4.233416
Ne    0.000000    0.000000    0.000000
           2
 Time =    5557.0000000000000     
Ne    0.000000    0.000000    4.233416
Ne    0.000000    0.000000    0.000000
           2
 Time =    5558.0000000000000     
Ne    0.000000    0.000000    4.233416
Ne    0.000000    0.000000    0.000000
           2
 Time =    5559.0000000000000     
Ne    0.000000    0.000000    4.233416
Ne    0.000000    0.000000    0.000000
           2
 Time =    5560.0000000000000     
Ne    0.000000    0.000000    4.233416
Ne    0.000000    0.000000    0.000000
           2
 Time =    5561.0000000000000     
Ne    0.000000    0.000000    4.233416
Ne    0.000000    0.000000    0.000000
           2
 Time =    5562.0000000000000     
Ne    0.000000    0.000000    4.233416
Ne    0.000000    0.000000    0.000000
           2
 Time =    5563.0000000000000     
Ne    0.000000    0.000000    4.233416
Ne    0.000000    0.000000    0.000000
           2
 Time =    5564.0000000000000     
Ne    0.000000    0.000000    4.233416
Ne    0.000000    0.000000    0.000000
           2
 Time =    5565.0000000000000     
Ne    0.000000    0.000000    4.233416
Ne    0.000000    0.000000    0.000000
           2
 Time =    5566.0000000000000     
Ne    0.000000    0.000000    4.233416
Ne    0.000000    0.000000    0.000000
           2
 Time =    5567.0000000000000     
Ne    0.000000    0.000000    4.233416
Ne    0.000000    0.000000    0.000000
           2
 Time =    5568.0000000000000     
Ne    0.000000    0.000000    4.233416
Ne    0.000000    0.000000    0.000000
           2
 Time =    5569.0000000000000     
Ne    0.000000    0.000000    4.233416
Ne    0.000000    0.000000    0.000000
           2
 Time =    5570.0000000000000     
Ne    0.000000    0.000000    4.233416
Ne    0.000000    0.000000    0.000000
           2
 Time =    5571.0000000000000     
Ne    0.000000    0.000000    4.233416
Ne    0.000000    0.000000    0.000000
           2
 Time =    5572.0000000000000     
Ne    0.000000    0.000000    4.233416
Ne    0.000000    0.000000    0.000000
           2
 Time =    5573.0000000000000     
Ne    0.000000    0.000000    4.233416
Ne    0.000000    0.000000    0.000000
           2
 Time =    5574.0000000000000     
Ne    0.000000    0.000000    4.233416
Ne    0.000000    0.000000    0.000000
           2
 Time =    5575.0000000000000     
Ne    0.000000    0.000000    4.233416
Ne    0.000000    0.000000    0.000000
           2
 Time =    5576.0000000000000     
Ne    0.000000    0.000000    4.233416
Ne    0.000000    0.000000    0.000000
           2
 Time =    5577.0000000000000     
Ne    0.000000    0.000000    4.233416
Ne    0.000000    0.000000    0.000000
           2
 Time =    5578.0000000000000     
Ne    0.000000    0.000000    4.233416
Ne    0.000000    0.000000    0.000000
           2
 Time =    5579.0000000000000     
Ne    0.000000    0.000000    4.233416
Ne    0.000000    0.000000    0.000000
           2
 Time =    5580.0000000000000     
Ne    0.000000    0.000000    4.233416
Ne    0.000000    0.000000    0.000000
           2
 Time =    5581.0000000000000     
Ne    0.000000    0.000000    4.233416
Ne    0.000000    0.000000    0.000000
           2
 Time =    5582.0000000000000     
Ne    0.000000    0.000000    4.233416
Ne    0.000000    0.000000    0.000000
           2
 Time =    5583.0000000000000     
Ne    0.000000    0.000000    4.233416
Ne    0.000000    0.000000    0.000000
           2
 Time =    5584.0000000000000     
Ne    0.000000    0.000000    4.233416
Ne    0.000000    0.000000    0.000000
           2
 Time =    5585.0000000000000     
Ne    0.000000    0.000000    4.233416
Ne    0.000000    0.000000    0.000000
           2
 Time =    5586.0000000000000     
Ne    0.000000    0.000000    4.233416
Ne    0.000000    0.000000    0.000000
           2
 Time =    5587.0000000000000     
Ne    0.000000    0.000000    4.233416
Ne    0.000000    0.000000    0.000000
           2
 Time =    5588.0000000000000     
Ne    0.000000    0.000000    4.233416
Ne    0.000000    0.000000    0.000000
           2
 Time =    5589.0000000000000     
Ne    0.000000    0.000000    4.233416
Ne    0.000000    0.000000    0.000000
           2
 Time =    5590.0000000000000     
Ne    0.000000    0.000000    4.233416
Ne    0.000000    0.000000    0.000000
           2
 Time =    5591.0000000000000     
Ne    0.000000    0.000000    4.233416
Ne    0.000000    0.000000    0.000000
           2
 Time =    5592.0000000000000     
Ne    0.000000    0.000000    4.233416
Ne    0.000000    0.000000    0.000000
           2
 Time =    5593.0000000000000     
Ne    0.000000    0.000000    4.233416
Ne    0.000000    0.000000    0.000000
           2
 Time =    5594.0000000000000     
Ne    0.000000    0.000000    4.233416
Ne    0.000000    0.000000    0.000000
           2
 Time =    5595.0000000000000     
Ne    0.000000    0.000000    4.233416
Ne    0.000000    0.000000    0.000000
           2
 Time =    5596.0000000000000     
Ne    0.000000    0.000000    4.233416
Ne    0.000000    0.000000    0.000000
           2
 Time =    5597.0000000000000     
Ne    0.000000    0.000000    4.233416
Ne    0.000000    0.000000    0.000000
           2
 Time =    5598.0000000000000     
Ne    0.000000    0.000000    4.233416
Ne    0.000000    0.000000    0.000000
           2
 Time =    5599.0000000000000     
Ne    0.000000    0.000000    4.233416
Ne    0.000000    0.000000    0.000000
           2
 Time =    5600.0000000000000     
Ne    0.000000    0.000000    4.233416
Ne    0.000000    0.000000    0.000000
           2
 Time =    5601.0000000000000     
Ne    0.000000    0.000000    4.233416
Ne    0.000000    0.000000    0.000000
           2
 Time =    5602.0000000000000     
Ne    0.000000    0.000000    4.233416
Ne    0.000000    0.000000    0.000000
           2
 Time =    5603.0000000000000     
Ne    0.000000    0.000000    4.233416
Ne    0.000000    0.000000    0.000000
           2
 Time =    5604.0000000000000     
Ne    0.000000    0.000000    4.233416
Ne    0.000000    0.000000    0.000000
           2
 Time =    5605.0000000000000     
Ne    0.000000    0.000000    4.233416
Ne    0.000000    0.000000    0.000000
           2
 Time =    5606.0000000000000     
Ne    0.000000    0.000000    4.233416
Ne    0.000000    0.000000    0.000000
           2
 Time =    5607.0000000000000     
Ne    0.000000    0.000000    4.233416
Ne    0.000000    0.000000    0.000000
           2
 Time =    5608.0000000000000     
Ne    0.000000    0.000000    4.233416
Ne    0.000000    0.000000    0.000000
           2
 Time =    5609.0000000000000     
Ne    0.000000    0.000000    4.233416
Ne    0.000000    0.000000    0.000000
           2
 Time =    5610.0000000000000     
Ne    0.000000    0.000000    4.233416
Ne    0.000000    0.000000    0.000000
           2
 Time =    5611.0000000000000     
Ne    0.000000    0.000000    4.233416
Ne    0.000000    0.000000    0.000000
           2
 Time =    5612.0000000000000     
Ne    0.000000    0.000000    4.233416
Ne    0.000000    0.000000    0.000000
           2
 Time =    5613.0000000000000     
Ne    0.000000    0.000000    4.233416
Ne    0.000000    0.000000    0.000000
           2
 Time =    5614.0000000000000     
Ne    0.000000    0.000000    4.233416
Ne    0.000000    0.000000    0.000000
           2
 Time =    5615.0000000000000     
Ne    0.000000    0.000000    4.233416
Ne    0.000000    0.000000    0.000000
           2
 Time =    5616.0000000000000     
Ne    0.000000    0.000000    4.233416
Ne    0.000000    0.000000    0.000000
           2
 Time =    5617.0000000000000     
Ne    0.000000    0.000000    4.233416
Ne    0.000000    0.000000    0.000000
           2
 Time =    5618.0000000000000     
Ne    0.000000    0.000000    4.233416
Ne    0.000000    0.000000    0.000000
           2
 Time =    5619.0000000000000     
Ne    0.000000    0.000000    4.233416
Ne    0.000000    0.000000    0.000000
           2
 Time =    5620.0000000000000     
Ne    0.000000    0.000000    4.233416
Ne    0.000000    0.000000    0.000000
           2
 Time =    5621.0000000000000     
Ne    0.000000    0.000000    4.233416
Ne    0.000000    0.000000    0.000000
           2
 Time =    5622.0000000000000     
Ne    0.000000    0.000000    4.233416
Ne    0.000000    0.000000    0.000000
           2
 Time =    5623.0000000000000     
Ne    0.000000    0.000000    4.233416
Ne    0.000000    0.000000    0.000000
           2
 Time =    5624.0000000000000     
Ne    0.000000    0.000000    4.233416
Ne    0.000000    0.000000    0.000000
           2
 Time =    5625.0000000000000     
Ne    0.000000    0.000000    4.233416
Ne    0.000000    0.000000    0.000000
           2
 Time =    5626.0000000000000     
Ne    0.000000    0.000000    4.233416
Ne    0.000000    0.000000    0.000000
           2
 Time =    5627.0000000000000     
Ne    0.000000    0.000000    4.233416
Ne    0.000000    0.000000    0.000000
           2
 Time =    5628.0000000000000     
Ne    0.000000    0.000000    4.233416
Ne    0.000000    0.000000    0.000000
           2
 Time =    5629.0000000000000     
Ne    0.000000    0.000000    4.233416
Ne    0.000000    0.000000    0.000000
           2
 Time =    5630.0000000000000     
Ne    0.000000    0.000000    4.233416
Ne    0.000000    0.000000    0.000000
           2
 Time =    5631.0000000000000     
Ne    0.000000    0.000000    4.233416
Ne    0.000000    0.000000    0.000000
           2
 Time =    5632.0000000000000     
Ne    0.000000    0.000000    4.233416
Ne    0.000000    0.000000    0.000000
           2
 Time =    5633.0000000000000     
Ne    0.000000    0.000000    4.233416
Ne    0.000000    0.000000    0.000000
           2
 Time =    5634.0000000000000     
Ne    0.000000    0.000000    4.233416
Ne    0.000000    0.000000    0.000000
           2
 Time =    5635.0000000000000     
Ne    0.000000    0.000000    4.233416
Ne    0.000000    0.000000    0.000000
           2
 Time =    5636.0000000000000     
Ne    0.000000    0.000000    4.233416
Ne    0.000000    0.000000    0.000000
           2
 Time =    5637.0000000000000     
Ne    0.000000    0.000000    4.233416
Ne    0.000000    0.000000    0.000000
           2
 Time =    5638.0000000000000     
Ne    0.000000    0.000000    4.233416
Ne    0.000000    0.000000    0.000000
           2
 Time =    5639.0000000000000     
Ne    0.000000    0.000000    4.233416
Ne    0.000000    0.000000    0.000000
           2
 Time =    5640.0000000000000     
Ne    0.000000    0.000000    4.233416
Ne    0.000000    0.000000    0.000000
           2
 Time =    5641.0000000000000     
Ne    0.000000    0.000000    4.233416
Ne    0.000000    0.000000    0.000000
           2
 Time =    5642.0000000000000     
Ne    0.000000    0.000000    4.233416
Ne    0.000000    0.000000    0.000000
           2
 Time =    5643.0000000000000     
Ne    0.000000    0.000000    4.233416
Ne    0.000000    0.000000    0.000000
           2
 Time =    5644.0000000000000     
Ne    0.000000    0.000000    4.233416
Ne    0.000000    0.000000    0.000000
           2
 Time =    5645.0000000000000     
Ne    0.000000    0.000000    4.233416
Ne    0.000000    0.000000    0.000000
           2
 Time =    5646.0000000000000     
Ne    0.000000    0.000000    4.233416
Ne    0.000000    0.000000    0.000000
           2
 Time =    5647.0000000000000     
Ne    0.000000    0.000000    4.233416
Ne    0.000000    0.000000    0.000000
           2
 Time =    5648.0000000000000     
Ne    0.000000    0.000000    4.233416
Ne    0.000000    0.000000    0.000000
           2
 Time =    5649.0000000000000     
Ne    0.000000    0.000000    4.233416
Ne    0.000000    0.000000    0.000000
           2
 Time =    5650.0000000000000     
Ne    0.000000    0.000000    4.233416
Ne    0.000000    0.000000    0.000000
           2
 Time =    5651.0000000000000     
Ne    0.000000    0.000000    4.233416
Ne    0.000000    0.000000    0.000000
           2
 Time =    5652.0000000000000     
Ne    0.000000    0.000000    4.233416
Ne    0.000000    0.000000    0.000000
           2
 Time =    5653.0000000000000     
Ne    0.000000    0.000000    4.233416
Ne    0.000000    0.000000    0.000000
           2
 Time =    5654.0000000000000     
Ne    0.000000    0.000000    4.233416
Ne    0.000000    0.000000    0.000000
           2
 Time =    5655.0000000000000     
Ne    0.000000    0.000000    4.233416
Ne    0.000000    0.000000    0.000000
           2
 Time =    5656.0000000000000     
Ne    0.000000    0.000000    4.233416
Ne    0.000000    0.000000    0.000000
           2
 Time =    5657.0000000000000     
Ne    0.000000    0.000000    4.233416
Ne    0.000000    0.000000    0.000000
           2
 Time =    5658.0000000000000     
Ne    0.000000    0.000000    4.233416
Ne    0.000000    0.000000    0.000000
           2
 Time =    5659.0000000000000     
Ne    0.000000    0.000000    4.233416
Ne    0.000000    0.000000    0.000000
           2
 Time =    5660.0000000000000     
Ne    0.000000    0.000000    4.233416
Ne    0.000000    0.000000    0.000000
           2
 Time =    5661.0000000000000     
Ne    0.000000    0.000000    4.233416
Ne    0.000000    0.000000    0.000000
           2
 Time =    5662.0000000000000     
Ne    0.000000    0.000000    4.233416
Ne    0.000000    0.000000    0.000000
           2
 Time =    5663.0000000000000     
Ne    0.000000    0.000000    4.233416
Ne    0.000000    0.000000    0.000000
           2
 Time =    5664.0000000000000     
Ne    0.000000    0.000000    4.233416
Ne    0.000000    0.000000    0.000000
           2
 Time =    5665.0000000000000     
Ne    0.000000    0.000000    4.233416
Ne    0.000000    0.000000    0.000000
           2
 Time =    5666.0000000000000     
Ne    0.000000    0.000000    4.233416
Ne    0.000000    0.000000    0.000000
           2
 Time =    5667.0000000000000     
Ne    0.000000    0.000000    4.233416
Ne    0.000000    0.000000    0.000000
           2
 Time =    5668.0000000000000     
Ne    0.000000    0.000000    4.233416
Ne    0.000000    0.000000    0.000000
           2
 Time =    5669.0000000000000     
Ne    0.000000    0.000000    4.233416
Ne    0.000000    0.000000    0.000000
           2
 Time =    5670.0000000000000     
Ne    0.000000    0.000000    4.233416
Ne    0.000000    0.000000    0.000000
           2
 Time =    5671.0000000000000     
Ne    0.000000    0.000000    4.233416
Ne    0.000000    0.000000    0.000000
           2
 Time =    5672.0000000000000     
Ne    0.000000    0.000000    4.233416
Ne    0.000000    0.000000    0.000000
           2
 Time =    5673.0000000000000     
Ne    0.000000    0.000000    4.233416
Ne    0.000000    0.000000    0.000000
           2
 Time =    5674.0000000000000     
Ne    0.000000    0.000000    4.233416
Ne    0.000000    0.000000    0.000000
           2
 Time =    5675.0000000000000     
Ne    0.000000    0.000000    4.233416
Ne    0.000000    0.000000    0.000000
           2
 Time =    5676.0000000000000     
Ne    0.000000    0.000000    4.233416
Ne    0.000000    0.000000    0.000000
           2
 Time =    5677.0000000000000     
Ne    0.000000    0.000000    4.233416
Ne    0.000000    0.000000    0.000000
           2
 Time =    5678.0000000000000     
Ne    0.000000    0.000000    4.233416
Ne    0.000000    0.000000    0.000000
           2
 Time =    5679.0000000000000     
Ne    0.000000    0.000000    4.233416
Ne    0.000000    0.000000    0.000000
           2
 Time =    5680.0000000000000     
Ne    0.000000    0.000000    4.233416
Ne    0.000000    0.000000    0.000000
           2
 Time =    5681.0000000000000     
Ne    0.000000    0.000000    4.233416
Ne    0.000000    0.000000    0.000000
           2
 Time =    5682.0000000000000     
Ne    0.000000    0.000000    4.233416
Ne    0.000000    0.000000    0.000000
           2
 Time =    5683.0000000000000     
Ne    0.000000    0.000000    4.233416
Ne    0.000000    0.000000    0.000000
           2
 Time =    5684.0000000000000     
Ne    0.000000    0.000000    4.233416
Ne    0.000000    0.000000    0.000000
           2
 Time =    5685.0000000000000     
Ne    0.000000    0.000000    4.233416
Ne    0.000000    0.000000    0.000000
           2
 Time =    5686.0000000000000     
Ne    0.000000    0.000000    4.233416
Ne    0.000000    0.000000    0.000000
           2
 Time =    5687.0000000000000     
Ne    0.000000    0.000000    4.233416
Ne    0.000000    0.000000    0.000000
           2
 Time =    5688.0000000000000     
Ne    0.000000    0.000000    4.233416
Ne    0.000000    0.000000    0.000000
           2
 Time =    5689.0000000000000     
Ne    0.000000    0.000000    4.233416
Ne    0.000000    0.000000    0.000000
           2
 Time =    5690.0000000000000     
Ne    0.000000    0.000000    4.233416
Ne    0.000000    0.000000    0.000000
           2
 Time =    5691.0000000000000     
Ne    0.000000    0.000000    4.233416
Ne    0.000000    0.000000    0.000000
           2
 Time =    5692.0000000000000     
Ne    0.000000    0.000000    4.233416
Ne    0.000000    0.000000    0.000000
           2
 Time =    5693.0000000000000     
Ne    0.000000    0.000000    4.233416
Ne    0.000000    0.000000    0.000000
           2
 Time =    5694.0000000000000     
Ne    0.000000    0.000000    4.233416
Ne    0.000000    0.000000    0.000000
           2
 Time =    5695.0000000000000     
Ne    0.000000    0.000000    4.233416
Ne    0.000000    0.000000    0.000000
           2
 Time =    5696.0000000000000     
Ne    0.000000    0.000000    4.233416
Ne    0.000000    0.000000    0.000000
           2
 Time =    5697.0000000000000     
Ne    0.000000    0.000000    4.233416
Ne    0.000000    0.000000    0.000000
           2
 Time =    5698.0000000000000     
Ne    0.000000    0.000000    4.233416
Ne    0.000000    0.000000    0.000000
           2
 Time =    5699.0000000000000     
Ne    0.000000    0.000000    4.233416
Ne    0.000000    0.000000    0.000000
           2
 Time =    5700.0000000000000     
Ne    0.000000    0.000000    4.233416
Ne    0.000000    0.000000    0.000000
           2
 Time =    5701.0000000000000     
Ne    0.000000    0.000000    4.233416
Ne    0.000000    0.000000    0.000000
           2
 Time =    5702.0000000000000     
Ne    0.000000    0.000000    4.233416
Ne    0.000000    0.000000    0.000000
           2
 Time =    5703.0000000000000     
Ne    0.000000    0.000000    4.233416
Ne    0.000000    0.000000    0.000000
           2
 Time =    5704.0000000000000     
Ne    0.000000    0.000000    4.233416
Ne    0.000000    0.000000    0.000000
           2
 Time =    5705.0000000000000     
Ne    0.000000    0.000000    4.233416
Ne    0.000000    0.000000    0.000000
           2
 Time =    5706.0000000000000     
Ne    0.000000    0.000000    4.233416
Ne    0.000000    0.000000    0.000000
           2
 Time =    5707.0000000000000     
Ne    0.000000    0.000000    4.233416
Ne    0.000000    0.000000    0.000000
           2
 Time =    5708.0000000000000     
Ne    0.000000    0.000000    4.233416
Ne    0.000000    0.000000    0.000000
           2
 Time =    5709.0000000000000     
Ne    0.000000    0.000000    4.233416
Ne    0.000000    0.000000    0.000000
           2
 Time =    5710.0000000000000     
Ne    0.000000    0.000000    4.233416
Ne    0.000000    0.000000    0.000000
           2
 Time =    5711.0000000000000     
Ne    0.000000    0.000000    4.233416
Ne    0.000000    0.000000    0.000000
           2
 Time =    5712.0000000000000     
Ne    0.000000    0.000000    4.233416
Ne    0.000000    0.000000    0.000000
           2
 Time =    5713.0000000000000     
Ne    0.000000    0.000000    4.233416
Ne    0.000000    0.000000    0.000000
           2
 Time =    5714.0000000000000     
Ne    0.000000    0.000000    4.233416
Ne    0.000000    0.000000    0.000000
           2
 Time =    5715.0000000000000     
Ne    0.000000    0.000000    4.233416
Ne    0.000000    0.000000    0.000000
           2
 Time =    5716.0000000000000     
Ne    0.000000    0.000000    4.233416
Ne    0.000000    0.000000    0.000000
           2
 Time =    5717.0000000000000     
Ne    0.000000    0.000000    4.233416
Ne    0.000000    0.000000    0.000000
           2
 Time =    5718.0000000000000     
Ne    0.000000    0.000000    4.233416
Ne    0.000000    0.000000    0.000000
           2
 Time =    5719.0000000000000     
Ne    0.000000    0.000000    4.233416
Ne    0.000000    0.000000    0.000000
           2
 Time =    5720.0000000000000     
Ne    0.000000    0.000000    4.233416
Ne    0.000000    0.000000    0.000000
           2
 Time =    5721.0000000000000     
Ne    0.000000    0.000000    4.233416
Ne    0.000000    0.000000    0.000000
           2
 Time =    5722.0000000000000     
Ne    0.000000    0.000000    4.233416
Ne    0.000000    0.000000    0.000000
           2
 Time =    5723.0000000000000     
Ne    0.000000    0.000000    4.233416
Ne    0.000000    0.000000    0.000000
           2
 Time =    5724.0000000000000     
Ne    0.000000    0.000000    4.233416
Ne    0.000000    0.000000    0.000000
           2
 Time =    5725.0000000000000     
Ne    0.000000    0.000000    4.233416
Ne    0.000000    0.000000    0.000000
           2
 Time =    5726.0000000000000     
Ne    0.000000    0.000000    4.233416
Ne    0.000000    0.000000    0.000000
           2
 Time =    5727.0000000000000     
Ne    0.000000    0.000000    4.233416
Ne    0.000000    0.000000    0.000000
           2
 Time =    5728.0000000000000     
Ne    0.000000    0.000000    4.233416
Ne    0.000000    0.000000    0.000000
           2
 Time =    5729.0000000000000     
Ne    0.000000    0.000000    4.233416
Ne    0.000000    0.000000    0.000000
           2
 Time =    5730.0000000000000     
Ne    0.000000    0.000000    4.233416
Ne    0.000000    0.000000    0.000000
           2
 Time =    5731.0000000000000     
Ne    0.000000    0.000000    4.233416
Ne    0.000000    0.000000    0.000000
           2
 Time =    5732.0000000000000     
Ne    0.000000    0.000000    4.233416
Ne    0.000000    0.000000    0.000000
           2
 Time =    5733.0000000000000     
Ne    0.000000    0.000000    4.233416
Ne    0.000000    0.000000    0.000000
           2
 Time =    5734.0000000000000     
Ne    0.000000    0.000000    4.233416
Ne    0.000000    0.000000    0.000000
           2
 Time =    5735.0000000000000     
Ne    0.000000    0.000000    4.233416
Ne    0.000000    0.000000    0.000000
           2
 Time =    5736.0000000000000     
Ne    0.000000    0.000000    4.233416
Ne    0.000000    0.000000    0.000000
           2
 Time =    5737.0000000000000     
Ne    0.000000    0.000000    4.233416
Ne    0.000000    0.000000    0.000000
           2
 Time =    5738.0000000000000     
Ne    0.000000    0.000000    4.233416
Ne    0.000000    0.000000    0.000000
           2
 Time =    5739.0000000000000     
Ne    0.000000    0.000000    4.233416
Ne    0.000000    0.000000    0.000000
           2
 Time =    5740.0000000000000     
Ne    0.000000    0.000000    4.233416
Ne    0.000000    0.000000    0.000000
           2
 Time =    5741.0000000000000     
Ne    0.000000    0.000000    4.233416
Ne    0.000000    0.000000    0.000000
           2
 Time =    5742.0000000000000     
Ne    0.000000    0.000000    4.233416
Ne    0.000000    0.000000    0.000000
           2
 Time =    5743.0000000000000     
Ne    0.000000    0.000000    4.233416
Ne    0.000000    0.000000    0.000000
           2
 Time =    5744.0000000000000     
Ne    0.000000    0.000000    4.233416
Ne    0.000000    0.000000    0.000000
           2
 Time =    5745.0000000000000     
Ne    0.000000    0.000000    4.233416
Ne    0.000000    0.000000    0.000000
           2
 Time =    5746.0000000000000     
Ne    0.000000    0.000000    4.233416
Ne    0.000000    0.000000    0.000000
           2
 Time =    5747.0000000000000     
Ne    0.000000    0.000000    4.233416
Ne    0.000000    0.000000    0.000000
           2
 Time =    5748.0000000000000     
Ne    0.000000    0.000000    4.233416
Ne    0.000000    0.000000    0.000000
           2
 Time =    5749.0000000000000     
Ne    0.000000    0.000000    4.233416
Ne    0.000000    0.000000    0.000000
           2
 Time =    5750.0000000000000     
Ne    0.000000    0.000000    4.233416
Ne    0.000000    0.000000    0.000000
           2
 Time =    5751.0000000000000     
Ne    0.000000    0.000000    4.233416
Ne    0.000000    0.000000    0.000000
           2
 Time =    5752.0000000000000     
Ne    0.000000    0.000000    4.233416
Ne    0.000000    0.000000    0.000000
           2
 Time =    5753.0000000000000     
Ne    0.000000    0.000000    4.233416
Ne    0.000000    0.000000    0.000000
           2
 Time =    5754.0000000000000     
Ne    0.000000    0.000000    4.233416
Ne    0.000000    0.000000    0.000000
           2
 Time =    5755.0000000000000     
Ne    0.000000    0.000000    4.233416
Ne    0.000000    0.000000    0.000000
           2
 Time =    5756.0000000000000     
Ne    0.000000    0.000000    4.233416
Ne    0.000000    0.000000    0.000000
           2
 Time =    5757.0000000000000     
Ne    0.000000    0.000000    4.233416
Ne    0.000000    0.000000    0.000000
           2
 Time =    5758.0000000000000     
Ne    0.000000    0.000000    4.233416
Ne    0.000000    0.000000    0.000000
           2
 Time =    5759.0000000000000     
Ne    0.000000    0.000000    4.233416
Ne    0.000000    0.000000    0.000000
           2
 Time =    5760.0000000000000     
Ne    0.000000    0.000000    4.233416
Ne    0.000000    0.000000    0.000000
           2
 Time =    5761.0000000000000     
Ne    0.000000    0.000000    4.233416
Ne    0.000000    0.000000    0.000000
           2
 Time =    5762.0000000000000     
Ne    0.000000    0.000000    4.233416
Ne    0.000000    0.000000    0.000000
           2
 Time =    5763.0000000000000     
Ne    0.000000    0.000000    4.233416
Ne    0.000000    0.000000    0.000000
           2
 Time =    5764.0000000000000     
Ne    0.000000    0.000000    4.233416
Ne    0.000000    0.000000    0.000000
           2
 Time =    5765.0000000000000     
Ne    0.000000    0.000000    4.233416
Ne    0.000000    0.000000    0.000000
           2
 Time =    5766.0000000000000     
Ne    0.000000    0.000000    4.233416
Ne    0.000000    0.000000    0.000000
           2
 Time =    5767.0000000000000     
Ne    0.000000    0.000000    4.233416
Ne    0.000000    0.000000    0.000000
           2
 Time =    5768.0000000000000     
Ne    0.000000    0.000000    4.233416
Ne    0.000000    0.000000    0.000000
           2
 Time =    5769.0000000000000     
Ne    0.000000    0.000000    4.233416
Ne    0.000000    0.000000    0.000000
           2
 Time =    5770.0000000000000     
Ne    0.000000    0.000000    4.233416
Ne    0.000000    0.000000    0.000000
           2
 Time =    5771.0000000000000     
Ne    0.000000    0.000000    4.233416
Ne    0.000000    0.000000    0.000000
           2
 Time =    5772.0000000000000     
Ne    0.000000    0.000000    4.233416
Ne    0.000000    0.000000    0.000000
           2
 Time =    5773.0000000000000     
Ne    0.000000    0.000000    4.233416
Ne    0.000000    0.000000    0.000000
           2
 Time =    5774.0000000000000     
Ne    0.000000    0.000000    4.233416
Ne    0.000000    0.000000    0.000000
           2
 Time =    5775.0000000000000     
Ne    0.000000    0.000000    4.233416
Ne    0.000000    0.000000    0.000000
           2
 Time =    5776.0000000000000     
Ne    0.000000    0.000000    4.233416
Ne    0.000000    0.000000    0.000000
           2
 Time =    5777.0000000000000     
Ne    0.000000    0.000000    4.233416
Ne    0.000000    0.000000    0.000000
           2
 Time =    5778.0000000000000     
Ne    0.000000    0.000000    4.233416
Ne    0.000000    0.000000    0.000000
           2
 Time =    5779.0000000000000     
Ne    0.000000    0.000000    4.233416
Ne    0.000000    0.000000    0.000000
           2
 Time =    5780.0000000000000     
Ne    0.000000    0.000000    4.233416
Ne    0.000000    0.000000    0.000000
           2
 Time =    5781.0000000000000     
Ne    0.000000    0.000000    4.233416
Ne    0.000000    0.000000    0.000000
           2
 Time =    5782.0000000000000     
Ne    0.000000    0.000000    4.233416
Ne    0.000000    0.000000    0.000000
           2
 Time =    5783.0000000000000     
Ne    0.000000    0.000000    4.233416
Ne    0.000000    0.000000    0.000000
           2
 Time =    5784.0000000000000     
Ne    0.000000    0.000000    4.233416
Ne    0.000000    0.000000    0.000000
           2
 Time =    5785.0000000000000     
Ne    0.000000    0.000000    4.233416
Ne    0.000000    0.000000    0.000000
           2
 Time =    5786.0000000000000     
Ne    0.000000    0.000000    4.233416
Ne    0.000000    0.000000    0.000000
           2
 Time =    5787.0000000000000     
Ne    0.000000    0.000000    4.233416
Ne    0.000000    0.000000    0.000000
           2
 Time =    5788.0000000000000     
Ne    0.000000    0.000000    4.233416
Ne    0.000000    0.000000    0.000000
           2
 Time =    5789.0000000000000     
Ne    0.000000    0.000000    4.233416
Ne    0.000000    0.000000    0.000000
           2
 Time =    5790.0000000000000     
Ne    0.000000    0.000000    4.233416
Ne    0.000000    0.000000    0.000000
           2
 Time =    5791.0000000000000     
Ne    0.000000    0.000000    4.233416
Ne    0.000000    0.000000    0.000000
           2
 Time =    5792.0000000000000     
Ne    0.000000    0.000000    4.233416
Ne    0.000000    0.000000    0.000000
           2
 Time =    5793.0000000000000     
Ne    0.000000    0.000000    4.233416
Ne    0.000000    0.000000    0.000000
           2
 Time =    5794.0000000000000     
Ne    0.000000    0.000000    4.233416
Ne    0.000000    0.000000    0.000000
           2
 Time =    5795.0000000000000     
Ne    0.000000    0.000000    4.233416
Ne    0.000000    0.000000    0.000000
           2
 Time =    5796.0000000000000     
Ne    0.000000    0.000000    4.233416
Ne    0.000000    0.000000    0.000000
           2
 Time =    5797.0000000000000     
Ne    0.000000    0.000000    4.233416
Ne    0.000000    0.000000    0.000000
           2
 Time =    5798.0000000000000     
Ne    0.000000    0.000000    4.233416
Ne    0.000000    0.000000    0.000000
           2
 Time =    5799.0000000000000     
Ne    0.000000    0.000000    4.233416
Ne    0.000000    0.000000    0.000000
           2
 Time =    5800.0000000000000     
Ne    0.000000    0.000000    4.233416
Ne    0.000000    0.000000    0.000000
           2
 Time =    5801.0000000000000     
Ne    0.000000    0.000000    4.233416
Ne    0.000000    0.000000    0.000000
           2
 Time =    5802.0000000000000     
Ne    0.000000    0.000000    4.233416
Ne    0.000000    0.000000    0.000000
           2
 Time =    5803.0000000000000     
Ne    0.000000    0.000000    4.233416
Ne    0.000000    0.000000    0.000000
           2
 Time =    5804.0000000000000     
Ne    0.000000    0.000000    4.233416
Ne    0.000000    0.000000    0.000000
           2
 Time =    5805.0000000000000     
Ne    0.000000    0.000000    4.233416
Ne    0.000000    0.000000    0.000000
           2
 Time =    5806.0000000000000     
Ne    0.000000    0.000000    4.233416
Ne    0.000000    0.000000    0.000000
           2
 Time =    5807.0000000000000     
Ne    0.000000    0.000000    4.233416
Ne    0.000000    0.000000    0.000000
           2
 Time =    5808.0000000000000     
Ne    0.000000    0.000000    4.233416
Ne    0.000000    0.000000    0.000000
           2
 Time =    5809.0000000000000     
Ne    0.000000    0.000000    4.233416
Ne    0.000000    0.000000    0.000000
           2
 Time =    5810.0000000000000     
Ne    0.000000    0.000000    4.233416
Ne    0.000000    0.000000    0.000000
           2
 Time =    5811.0000000000000     
Ne    0.000000    0.000000    4.233416
Ne    0.000000    0.000000    0.000000
           2
 Time =    5812.0000000000000     
Ne    0.000000    0.000000    4.233416
Ne    0.000000    0.000000    0.000000
           2
 Time =    5813.0000000000000     
Ne    0.000000    0.000000    4.233416
Ne    0.000000    0.000000    0.000000
           2
 Time =    5814.0000000000000     
Ne    0.000000    0.000000    4.233416
Ne    0.000000    0.000000    0.000000
           2
 Time =    5815.0000000000000     
Ne    0.000000    0.000000    4.233416
Ne    0.000000    0.000000    0.000000
           2
 Time =    5816.0000000000000     
Ne    0.000000    0.000000    4.233416
Ne    0.000000    0.000000    0.000000
           2
 Time =    5817.0000000000000     
Ne    0.000000    0.000000    4.233416
Ne    0.000000    0.000000    0.000000
           2
 Time =    5818.0000000000000     
Ne    0.000000    0.000000    4.233416
Ne    0.000000    0.000000    0.000000
           2
 Time =    5819.0000000000000     
Ne    0.000000    0.000000    4.233416
Ne    0.000000    0.000000    0.000000
           2
 Time =    5820.0000000000000     
Ne    0.000000    0.000000    4.233416
Ne    0.000000    0.000000    0.000000
           2
 Time =    5821.0000000000000     
Ne    0.000000    0.000000    4.233416
Ne    0.000000    0.000000    0.000000
           2
 Time =    5822.0000000000000     
Ne    0.000000    0.000000    4.233416
Ne    0.000000    0.000000    0.000000
           2
 Time =    5823.0000000000000     
Ne    0.000000    0.000000    4.233416
Ne    0.000000    0.000000    0.000000
           2
 Time =    5824.0000000000000     
Ne    0.000000    0.000000    4.233416
Ne    0.000000    0.000000    0.000000
           2
 Time =    5825.0000000000000     
Ne    0.000000    0.000000    4.233416
Ne    0.000000    0.000000    0.000000
           2
 Time =    5826.0000000000000     
Ne    0.000000    0.000000    4.233416
Ne    0.000000    0.000000    0.000000
           2
 Time =    5827.0000000000000     
Ne    0.000000    0.000000    4.233416
Ne    0.000000    0.000000    0.000000
           2
 Time =    5828.0000000000000     
Ne    0.000000    0.000000    4.233416
Ne    0.000000    0.000000    0.000000
           2
 Time =    5829.0000000000000     
Ne    0.000000    0.000000    4.233416
Ne    0.000000    0.000000    0.000000
           2
 Time =    5830.0000000000000     
Ne    0.000000    0.000000    4.233416
Ne    0.000000    0.000000    0.000000
           2
 Time =    5831.0000000000000     
Ne    0.000000    0.000000    4.233416
Ne    0.000000    0.000000    0.000000
           2
 Time =    5832.0000000000000     
Ne    0.000000    0.000000    4.233416
Ne    0.000000    0.000000    0.000000
           2
 Time =    5833.0000000000000     
Ne    0.000000    0.000000    4.233416
Ne    0.000000    0.000000    0.000000
           2
 Time =    5834.0000000000000     
Ne    0.000000    0.000000    4.233416
Ne    0.000000    0.000000    0.000000
           2
 Time =    5835.0000000000000     
Ne    0.000000    0.000000    4.233416
Ne    0.000000    0.000000    0.000000
           2
 Time =    5836.0000000000000     
Ne    0.000000    0.000000    4.233416
Ne    0.000000    0.000000    0.000000
           2
 Time =    5837.0000000000000     
Ne    0.000000    0.000000    4.233416
Ne    0.000000    0.000000    0.000000
           2
 Time =    5838.0000000000000     
Ne    0.000000    0.000000    4.233416
Ne    0.000000    0.000000    0.000000
           2
 Time =    5839.0000000000000     
Ne    0.000000    0.000000    4.233416
Ne    0.000000    0.000000    0.000000
           2
 Time =    5840.0000000000000     
Ne    0.000000    0.000000    4.233416
Ne    0.000000    0.000000    0.000000
           2
 Time =    5841.0000000000000     
Ne    0.000000    0.000000    4.233416
Ne    0.000000    0.000000    0.000000
           2
 Time =    5842.0000000000000     
Ne    0.000000    0.000000    4.233416
Ne    0.000000    0.000000    0.000000
           2
 Time =    5843.0000000000000     
Ne    0.000000    0.000000    4.233416
Ne    0.000000    0.000000    0.000000
           2
 Time =    5844.0000000000000     
Ne    0.000000    0.000000    4.233416
Ne    0.000000    0.000000    0.000000
           2
 Time =    5845.0000000000000     
Ne    0.000000    0.000000    4.233416
Ne    0.000000    0.000000    0.000000
           2
 Time =    5846.0000000000000     
Ne    0.000000    0.000000    4.233416
Ne    0.000000    0.000000    0.000000
           2
 Time =    5847.0000000000000     
Ne    0.000000    0.000000    4.233416
Ne    0.000000    0.000000    0.000000
           2
 Time =    5848.0000000000000     
Ne    0.000000    0.000000    4.233416
Ne    0.000000    0.000000    0.000000
           2
 Time =    5849.0000000000000     
Ne    0.000000    0.000000    4.233416
Ne    0.000000    0.000000    0.000000
           2
 Time =    5850.0000000000000     
Ne    0.000000    0.000000    4.233416
Ne    0.000000    0.000000    0.000000
           2
 Time =    5851.0000000000000     
Ne    0.000000    0.000000    4.233416
Ne    0.000000    0.000000    0.000000
           2
 Time =    5852.0000000000000     
Ne    0.000000    0.000000    4.233416
Ne    0.000000    0.000000    0.000000
           2
 Time =    5853.0000000000000     
Ne    0.000000    0.000000    4.233416
Ne    0.000000    0.000000    0.000000
           2
 Time =    5854.0000000000000     
Ne    0.000000    0.000000    4.233416
Ne    0.000000    0.000000    0.000000
           2
 Time =    5855.0000000000000     
Ne    0.000000    0.000000    4.233416
Ne    0.000000    0.000000    0.000000
           2
 Time =    5856.0000000000000     
Ne    0.000000    0.000000    4.233416
Ne    0.000000    0.000000    0.000000
           2
 Time =    5857.0000000000000     
Ne    0.000000    0.000000    4.233416
Ne    0.000000    0.000000    0.000000
           2
 Time =    5858.0000000000000     
Ne    0.000000    0.000000    4.233416
Ne    0.000000    0.000000    0.000000
           2
 Time =    5859.0000000000000     
Ne    0.000000    0.000000    4.233416
Ne    0.000000    0.000000    0.000000
           2
 Time =    5860.0000000000000     
Ne    0.000000    0.000000    4.233416
Ne    0.000000    0.000000    0.000000
           2
 Time =    5861.0000000000000     
Ne    0.000000    0.000000    4.233416
Ne    0.000000    0.000000    0.000000
           2
 Time =    5862.0000000000000     
Ne    0.000000    0.000000    4.233416
Ne    0.000000    0.000000    0.000000
           2
 Time =    5863.0000000000000     
Ne    0.000000    0.000000    4.233416
Ne    0.000000    0.000000    0.000000
           2
 Time =    5864.0000000000000     
Ne    0.000000    0.000000    4.233416
Ne    0.000000    0.000000    0.000000
           2
 Time =    5865.0000000000000     
Ne    0.000000    0.000000    4.233416
Ne    0.000000    0.000000    0.000000
           2
 Time =    5866.0000000000000     
Ne    0.000000    0.000000    4.233416
Ne    0.000000    0.000000    0.000000
           2
 Time =    5867.0000000000000     
Ne    0.000000    0.000000    4.233416
Ne    0.000000    0.000000    0.000000
           2
 Time =    5868.0000000000000     
Ne    0.000000    0.000000    4.233416
Ne    0.000000    0.000000    0.000000
           2
 Time =    5869.0000000000000     
Ne    0.000000    0.000000    4.233416
Ne    0.000000    0.000000    0.000000
           2
 Time =    5870.0000000000000     
Ne    0.000000    0.000000    4.233416
Ne    0.000000    0.000000    0.000000
           2
 Time =    5871.0000000000000     
Ne    0.000000    0.000000    4.233416
Ne    0.000000    0.000000    0.000000
           2
 Time =    5872.0000000000000     
Ne    0.000000    0.000000    4.233416
Ne    0.000000    0.000000    0.000000
           2
 Time =    5873.0000000000000     
Ne    0.000000    0.000000    4.233416
Ne    0.000000    0.000000    0.000000
           2
 Time =    5874.0000000000000     
Ne    0.000000    0.000000    4.233416
Ne    0.000000    0.000000    0.000000
           2
 Time =    5875.0000000000000     
Ne    0.000000    0.000000    4.233416
Ne    0.000000    0.000000    0.000000
           2
 Time =    5876.0000000000000     
Ne    0.000000    0.000000    4.233416
Ne    0.000000    0.000000    0.000000
           2
 Time =    5877.0000000000000     
Ne    0.000000    0.000000    4.233416
Ne    0.000000    0.000000    0.000000
           2
 Time =    5878.0000000000000     
Ne    0.000000    0.000000    4.233416
Ne    0.000000    0.000000    0.000000
           2
 Time =    5879.0000000000000     
Ne    0.000000    0.000000    4.233416
Ne    0.000000    0.000000    0.000000
           2
 Time =    5880.0000000000000     
Ne    0.000000    0.000000    4.233416
Ne    0.000000    0.000000    0.000000
           2
 Time =    5881.0000000000000     
Ne    0.000000    0.000000    4.233416
Ne    0.000000    0.000000    0.000000
           2
 Time =    5882.0000000000000     
Ne    0.000000    0.000000    4.233416
Ne    0.000000    0.000000    0.000000
           2
 Time =    5883.0000000000000     
Ne    0.000000    0.000000    4.233416
Ne    0.000000    0.000000    0.000000
           2
 Time =    5884.0000000000000     
Ne    0.000000    0.000000    4.233416
Ne    0.000000    0.000000    0.000000
           2
 Time =    5885.0000000000000     
Ne    0.000000    0.000000    4.233416
Ne    0.000000    0.000000    0.000000
           2
 Time =    5886.0000000000000     
Ne    0.000000    0.000000    4.233416
Ne    0.000000    0.000000    0.000000
           2
 Time =    5887.0000000000000     
Ne    0.000000    0.000000    4.233416
Ne    0.000000    0.000000    0.000000
           2
 Time =    5888.0000000000000     
Ne    0.000000    0.000000    4.233416
Ne    0.000000    0.000000    0.000000
           2
 Time =    5889.0000000000000     
Ne    0.000000    0.000000    4.233416
Ne    0.000000    0.000000    0.000000
           2
 Time =    5890.0000000000000     
Ne    0.000000    0.000000    4.233416
Ne    0.000000    0.000000    0.000000
           2
 Time =    5891.0000000000000     
Ne    0.000000    0.000000    4.233416
Ne    0.000000    0.000000    0.000000
           2
 Time =    5892.0000000000000     
Ne    0.000000    0.000000    4.233416
Ne    0.000000    0.000000    0.000000
           2
 Time =    5893.0000000000000     
Ne    0.000000    0.000000    4.233416
Ne    0.000000    0.000000    0.000000
           2
 Time =    5894.0000000000000     
Ne    0.000000    0.000000    4.233416
Ne    0.000000    0.000000    0.000000
           2
 Time =    5895.0000000000000     
Ne    0.000000    0.000000    4.233416
Ne    0.000000    0.000000    0.000000
           2
 Time =    5896.0000000000000     
Ne    0.000000    0.000000    4.233416
Ne    0.000000    0.000000    0.000000
           2
 Time =    5897.0000000000000     
Ne    0.000000    0.000000    4.233416
Ne    0.000000    0.000000    0.000000
           2
 Time =    5898.0000000000000     
Ne    0.000000    0.000000    4.233416
Ne    0.000000    0.000000    0.000000
           2
 Time =    5899.0000000000000     
Ne    0.000000    0.000000    4.233416
Ne    0.000000    0.000000    0.000000
           2
 Time =    5900.0000000000000     
Ne    0.000000    0.000000    4.233416
Ne    0.000000    0.000000    0.000000
           2
 Time =    5901.0000000000000     
Ne    0.000000    0.000000    4.233416
Ne    0.000000    0.000000    0.000000
           2
 Time =    5902.0000000000000     
Ne    0.000000    0.000000    4.233416
Ne    0.000000    0.000000    0.000000
           2
 Time =    5903.0000000000000     
Ne    0.000000    0.000000    4.233416
Ne    0.000000    0.000000    0.000000
           2
 Time =    5904.0000000000000     
Ne    0.000000    0.000000    4.233416
Ne    0.000000    0.000000    0.000000
           2
 Time =    5905.0000000000000     
Ne    0.000000    0.000000    4.233416
Ne    0.000000    0.000000    0.000000
           2
 Time =    5906.0000000000000     
Ne    0.000000    0.000000    4.233416
Ne    0.000000    0.000000    0.000000
           2
 Time =    5907.0000000000000     
Ne    0.000000    0.000000    4.233416
Ne    0.000000    0.000000    0.000000
           2
 Time =    5908.0000000000000     
Ne    0.000000    0.000000    4.233416
Ne    0.000000    0.000000    0.000000
           2
 Time =    5909.0000000000000     
Ne    0.000000    0.000000    4.233416
Ne    0.000000    0.000000    0.000000
           2
 Time =    5910.0000000000000     
Ne    0.000000    0.000000    4.233416
Ne    0.000000    0.000000    0.000000
           2
 Time =    5911.0000000000000     
Ne    0.000000    0.000000    4.233416
Ne    0.000000    0.000000    0.000000
           2
 Time =    5912.0000000000000     
Ne    0.000000    0.000000    4.233416
Ne    0.000000    0.000000    0.000000
           2
 Time =    5913.0000000000000     
Ne    0.000000    0.000000    4.233416
Ne    0.000000    0.000000    0.000000
           2
 Time =    5914.0000000000000     
Ne    0.000000    0.000000    4.233416
Ne    0.000000    0.000000    0.000000
           2
 Time =    5915.0000000000000     
Ne    0.000000    0.000000    4.233416
Ne    0.000000    0.000000    0.000000
           2
 Time =    5916.0000000000000     
Ne    0.000000    0.000000    4.233416
Ne    0.000000    0.000000    0.000000
           2
 Time =    5917.0000000000000     
Ne    0.000000    0.000000    4.233416
Ne    0.000000    0.000000    0.000000
           2
 Time =    5918.0000000000000     
Ne    0.000000    0.000000    4.233416
Ne    0.000000    0.000000    0.000000
           2
 Time =    5919.0000000000000     
Ne    0.000000    0.000000    4.233416
Ne    0.000000    0.000000    0.000000
           2
 Time =    5920.0000000000000     
Ne    0.000000    0.000000    4.233416
Ne    0.000000    0.000000    0.000000
           2
 Time =    5921.0000000000000     
Ne    0.000000    0.000000    4.233416
Ne    0.000000    0.000000    0.000000
           2
 Time =    5922.0000000000000     
Ne    0.000000    0.000000    4.233416
Ne    0.000000    0.000000    0.000000
           2
 Time =    5923.0000000000000     
Ne    0.000000    0.000000    4.233416
Ne    0.000000    0.000000    0.000000
           2
 Time =    5924.0000000000000     
Ne    0.000000    0.000000    4.233416
Ne    0.000000    0.000000    0.000000
           2
 Time =    5925.0000000000000     
Ne    0.000000    0.000000    4.233416
Ne    0.000000    0.000000    0.000000
           2
 Time =    5926.0000000000000     
Ne    0.000000    0.000000    4.233416
Ne    0.000000    0.000000    0.000000
           2
 Time =    5927.0000000000000     
Ne    0.000000    0.000000    4.233416
Ne    0.000000    0.000000    0.000000
           2
 Time =    5928.0000000000000     
Ne    0.000000    0.000000    4.233416
Ne    0.000000    0.000000    0.000000
           2
 Time =    5929.0000000000000     
Ne    0.000000    0.000000    4.233416
Ne    0.000000    0.000000    0.000000
           2
 Time =    5930.0000000000000     
Ne    0.000000    0.000000    4.233416
Ne    0.000000    0.000000    0.000000
           2
 Time =    5931.0000000000000     
Ne    0.000000    0.000000    4.233416
Ne    0.000000    0.000000    0.000000
           2
 Time =    5932.0000000000000     
Ne    0.000000    0.000000    4.233416
Ne    0.000000    0.000000    0.000000
           2
 Time =    5933.0000000000000     
Ne    0.000000    0.000000    4.233416
Ne    0.000000    0.000000    0.000000
           2
 Time =    5934.0000000000000     
Ne    0.000000    0.000000    4.233416
Ne    0.000000    0.000000    0.000000
           2
 Time =    5935.0000000000000     
Ne    0.000000    0.000000    4.233416
Ne    0.000000    0.000000    0.000000
           2
 Time =    5936.0000000000000     
Ne    0.000000    0.000000    4.233416
Ne    0.000000    0.000000    0.000000
           2
 Time =    5937.0000000000000     
Ne    0.000000    0.000000    4.233416
Ne    0.000000    0.000000    0.000000
           2
 Time =    5938.0000000000000     
Ne    0.000000    0.000000    4.233416
Ne    0.000000    0.000000    0.000000
           2
 Time =    5939.0000000000000     
Ne    0.000000    0.000000    4.233416
Ne    0.000000    0.000000    0.000000
           2
 Time =    5940.0000000000000     
Ne    0.000000    0.000000    4.233416
Ne    0.000000    0.000000    0.000000
           2
 Time =    5941.0000000000000     
Ne    0.000000    0.000000    4.233416
Ne    0.000000    0.000000    0.000000
           2
 Time =    5942.0000000000000     
Ne    0.000000    0.000000    4.233416
Ne    0.000000    0.000000    0.000000
           2
 Time =    5943.0000000000000     
Ne    0.000000    0.000000    4.233416
Ne    0.000000    0.000000    0.000000
           2
 Time =    5944.0000000000000     
Ne    0.000000    0.000000    4.233416
Ne    0.000000    0.000000    0.000000
           2
 Time =    5945.0000000000000     
Ne    0.000000    0.000000    4.233416
Ne    0.000000    0.000000    0.000000
           2
 Time =    5946.0000000000000     
Ne    0.000000    0.000000    4.233416
Ne    0.000000    0.000000    0.000000
           2
 Time =    5947.0000000000000     
Ne    0.000000    0.000000    4.233416
Ne    0.000000    0.000000    0.000000
           2
 Time =    5948.0000000000000     
Ne    0.000000    0.000000    4.233416
Ne    0.000000    0.000000    0.000000
           2
 Time =    5949.0000000000000     
Ne    0.000000    0.000000    4.233416
Ne    0.000000    0.000000    0.000000
           2
 Time =    5950.0000000000000     
Ne    0.000000    0.000000    4.233416
Ne    0.000000    0.000000    0.000000
           2
 Time =    5951.0000000000000     
Ne    0.000000    0.000000    4.233416
Ne    0.000000    0.000000    0.000000
           2
 Time =    5952.0000000000000     
Ne    0.000000    0.000000    4.233416
Ne    0.000000    0.000000    0.000000
           2
 Time =    5953.0000000000000     
Ne    0.000000    0.000000    4.233416
Ne    0.000000    0.000000    0.000000
           2
 Time =    5954.0000000000000     
Ne    0.000000    0.000000    4.233416
Ne    0.000000    0.000000    0.000000
           2
 Time =    5955.0000000000000     
Ne    0.000000    0.000000    4.233416
Ne    0.000000    0.000000    0.000000
           2
 Time =    5956.0000000000000     
Ne    0.000000    0.000000    4.233416
Ne    0.000000    0.000000    0.000000
           2
 Time =    5957.0000000000000     
Ne    0.000000    0.000000    4.233416
Ne    0.000000    0.000000    0.000000
           2
 Time =    5958.0000000000000     
Ne    0.000000    0.000000    4.233416
Ne    0.000000    0.000000    0.000000
           2
 Time =    5959.0000000000000     
Ne    0.000000    0.000000    4.233416
Ne    0.000000    0.000000    0.000000
           2
 Time =    5960.0000000000000     
Ne    0.000000    0.000000    4.233416
Ne    0.000000    0.000000    0.000000
           2
 Time =    5961.0000000000000     
Ne    0.000000    0.000000    4.233416
Ne    0.000000    0.000000    0.000000
           2
 Time =    5962.0000000000000     
Ne    0.000000    0.000000    4.233416
Ne    0.000000    0.000000    0.000000
           2
 Time =    5963.0000000000000     
Ne    0.000000    0.000000    4.233416
Ne    0.000000    0.000000    0.000000
           2
 Time =    5964.0000000000000     
Ne    0.000000    0.000000    4.233416
Ne    0.000000    0.000000    0.000000
           2
 Time =    5965.0000000000000     
Ne    0.000000    0.000000    4.233416
Ne    0.000000    0.000000    0.000000
           2
 Time =    5966.0000000000000     
Ne    0.000000    0.000000    4.233416
Ne    0.000000    0.000000    0.000000
           2
 Time =    5967.0000000000000     
Ne    0.000000    0.000000    4.233416
Ne    0.000000    0.000000    0.000000
           2
 Time =    5968.0000000000000     
Ne    0.000000    0.000000    4.233416
Ne    0.000000    0.000000    0.000000
           2
 Time =    5969.0000000000000     
Ne    0.000000    0.000000    4.233416
Ne    0.000000    0.000000    0.000000
           2
 Time =    5970.0000000000000     
Ne    0.000000    0.000000    4.233416
Ne    0.000000    0.000000    0.000000
           2
 Time =    5971.0000000000000     
Ne    0.000000    0.000000    4.233416
Ne    0.000000    0.000000    0.000000
           2
 Time =    5972.0000000000000     
Ne    0.000000    0.000000    4.233416
Ne    0.000000    0.000000    0.000000
           2
 Time =    5973.0000000000000     
Ne    0.000000    0.000000    4.233416
Ne    0.000000    0.000000    0.000000
           2
 Time =    5974.0000000000000     
Ne    0.000000    0.000000    4.233416
Ne    0.000000    0.000000    0.000000
           2
 Time =    5975.0000000000000     
Ne    0.000000    0.000000    4.233416
Ne    0.000000    0.000000    0.000000
           2
 Time =    5976.0000000000000     
Ne    0.000000    0.000000    4.233416
Ne    0.000000    0.000000    0.000000
           2
 Time =    5977.0000000000000     
Ne    0.000000    0.000000    4.233416
Ne    0.000000    0.000000    0.000000
           2
 Time =    5978.0000000000000     
Ne    0.000000    0.000000    4.233416
Ne    0.000000    0.000000    0.000000
           2
 Time =    5979.0000000000000     
Ne    0.000000    0.000000    4.233416
Ne    0.000000    0.000000    0.000000
           2
 Time =    5980.0000000000000     
Ne    0.000000    0.000000    4.233416
Ne    0.000000    0.000000    0.000000
           2
 Time =    5981.0000000000000     
Ne    0.000000    0.000000    4.233416
Ne    0.000000    0.000000    0.000000
           2
 Time =    5982.0000000000000     
Ne    0.000000    0.000000    4.233416
Ne    0.000000    0.000000    0.000000
           2
 Time =    5983.0000000000000     
Ne    0.000000    0.000000    4.233416
Ne    0.000000    0.000000    0.000000
           2
 Time =    5984.0000000000000     
Ne    0.000000    0.000000    4.233416
Ne    0.000000    0.000000    0.000000
           2
 Time =    5985.0000000000000     
Ne    0.000000    0.000000    4.233416
Ne    0.000000    0.000000    0.000000
           2
 Time =    5986.0000000000000     
Ne    0.000000    0.000000    4.233416
Ne    0.000000    0.000000    0.000000
           2
 Time =    5987.0000000000000     
Ne    0.000000    0.000000    4.233416
Ne    0.000000    0.000000    0.000000
           2
 Time =    5988.0000000000000     
Ne    0.000000    0.000000    4.233416
Ne    0.000000    0.000000    0.000000
           2
 Time =    5989.0000000000000     
Ne    0.000000    0.000000    4.233416
Ne    0.000000    0.000000    0.000000
           2
 Time =    5990.0000000000000     
Ne    0.000000    0.000000    4.233416
Ne    0.000000    0.000000    0.000000
           2
 Time =    5991.0000000000000     
Ne    0.000000    0.000000    4.233416
Ne    0.000000    0.000000    0.000000
           2
 Time =    5992.0000000000000     
Ne    0.000000    0.000000    4.233416
Ne    0.000000    0.000000    0.000000
           2
 Time =    5993.0000000000000     
Ne    0.000000    0.000000    4.233416
Ne    0.000000    0.000000    0.000000
           2
 Time =    5994.0000000000000     
Ne    0.000000    0.000000    4.233416
Ne    0.000000    0.000000    0.000000
           2
 Time =    5995.0000000000000     
Ne    0.000000    0.000000    4.233416
Ne    0.000000    0.000000    0.000000
           2
 Time =    5996.0000000000000     
Ne    0.000000    0.000000    4.233416
Ne    0.000000    0.000000    0.000000
           2
 Time =    5997.0000000000000     
Ne    0.000000    0.000000    4.233416
Ne    0.000000    0.000000    0.000000
           2
 Time =    5998.0000000000000     
Ne    0.000000    0.000000    4.233416
Ne    0.000000    0.000000    0.000000
           2
 Time =    5999.0000000000000     
Ne    0.000000    0.000000    4.233416
Ne    0.000000    0.000000    0.000000
